node_id;x;y;z;v_x;v_y;v_z;disp_x;disp_y;disp_z;T;stress_mean;strain_plast;stress_eff;stress_flow;strain_rate;surface_dist;contact_dist;strain_vol;structHardness;structTensile;structHeat;structVolume;structt85;structInstTRate;volume;Sub.stress_xx;Sub.stress_yy;Sub.stress_zz;Sub.stress_xy;Sub.stress_yz;Sub.stress_zx;stress_1;stress_2;stress_3;strain_elast;Sub.Strain_eff;Sub._strain_xx;Sub._strain_yy;Sub._strain_zz;Sub._strain_xy;Sub._strain_yz;Sub._strain_zx;Sub.strain_xx;Sub.strain_yy;Sub.strain_zz;Sub.strain_xy;Sub.strain_yz;Sub.strain_zx;Sub.strain_1;Sub.strain_1_x;Sub.strain_1_y;Sub.strain_1_z;Sub.strain_2;Sub.strain_2_x;Sub.strain_2_y;Sub.strain_2_z;Sub.strain_3;Sub.strain_3_x;Sub.strain_3_y;Sub.strain_3_z;Sub.strain_vol;Sub._temper_vol;Sub.stress_xx;Sub.stress_yy;Sub.stress_zz;Sub.stress_xy;Sub.stress_yz;Sub.stress_zx;Sub.stress_1;Sub.stress_1_x;Sub.stress_1_y;Sub.stress_1_z;Sub.stress_2;Sub.stress_2_x;Sub.stress_2_y;Sub.stress_2_z;Sub.stress_3;Sub.stress_3_x;Sub.stress_3_y;Sub.stress_3_z
0;0.375701;0.0548956;-0.402432;-1.10567e-08;-3.4685e-09;4.84084e-09;-0.00107669;-0.00028522;0.000439853;38.9663;-3.04994e+08;1.38078;7.29354e+08;2.04422e+09;0;0;1e+30;-0.0890948;428.496;1.33547e+09;109696;2.12678;3522.07;0.00524767;1.24076e-06;-8.19309e+07;-5.46745e+08;-2.86308e+08;-5.20086e+07;-3.4188e+08;5.88004e+07;1.32163e+07;-1.45704e+08;-7.82495e+08;0.23245;0.62467;0.00622019;0.296215;-0.302435;0.00281675;0.879777;0.195252;-0.0234781;0.266517;-0.332134;0.00281675;0.879777;0.195252;0.50349;0.0452188;0.441531;0.237714;-0.0144381;-0.0142088;0.00218046;-0.00134716;-0.578147;0.0885292;0.263781;-0.50679;-0.0890948;-0.108323;-8.19309e+07;-5.46745e+08;-2.86308e+08;-5.20085e+07;-3.4188e+08;5.88003e+07;1.32162e+07;8.37992e+06;-5.88122e+06;8.35798e+06;-1.45704e+08;-1.12653e+08;-5.10527e+07;7.70243e+07;-7.82495e+08;-1.0687e+07;-6.44884e+08;-4.43068e+08
1;0.377177;0.0604246;-0.398312;-1.1156e-08;-3.87682e-09;4.55468e-09;-0.00108635;-0.000320132;0.000407699;38.8783;-2.59112e+08;1.51687;7.25183e+08;2.04912e+09;0;0;1e+30;-0.0847752;428.496;1.33547e+09;109685;2.12669;3517.34;0.00522363;9.4283e-07;-1.50618e+06;-4.78181e+08;-2.97649e+08;-3.31657e+07;-3.39496e+08;3.19559e+07;2.97921e+07;-6.78594e+07;-7.39269e+08;0.231118;0.65158;0.149848;0.108252;-0.2581;-0.0513437;1.02587;0.130556;0.121589;0.0799938;-0.286358;-0.0513437;1.02587;0.130556;0.442352;0.023196;0.360248;0.255655;0.126708;0.126046;-0.0118284;0.00523122;-0.653835;0.0572594;0.37449;-0.532897;-0.0847752;-0.104276;-1.50623e+06;-4.78181e+08;-2.97649e+08;-3.31657e+07;-3.39496e+08;3.19559e+07;2.9792e+07;2.45686e+07;-1.04427e+07;1.32249e+07;-6.78593e+07;3.8377e+07;3.38025e+07;-4.46035e+07;-7.39269e+08;-6.8557e+06;-5.86313e+08;-4.50232e+08
2;0.377543;0.0661054;-0.393591;-1.11879e-08;-4.28717e-09;4.22256e-09;-0.00108841;-0.000365628;0.000378836;38.875;-1.96376e+08;1.61903;7.56337e+08;2.06051e+09;0;0;1e+30;-0.0831384;428.496;1.33547e+09;109685;2.12667;3516.95;0.00522272;3.38749e-07;6.40415e+07;-3.66828e+08;-2.8634e+08;-3.01871e+07;-3.70355e+08;1.11956e+07;8.50773e+07;2.52102e+07;-6.99414e+08;0.241046;0.644064;0.159293;0.0742338;-0.233527;0.0224215;1.03227;0.0867363;0.13158;0.0465211;-0.26124;0.0224215;1.03227;0.0867363;0.43525;0.0498214;0.345908;0.259439;0.128572;0.127643;-0.0145681;-0.00508836;-0.646961;0.0233464;0.385776;-0.518835;-0.0831384;-0.103013;6.40413e+07;-3.66828e+08;-2.8634e+08;-3.0187e+07;-3.70355e+08;1.11956e+07;8.50772e+07;6.87654e+07;-3.44212e+07;3.63955e+07;2.52103e+07;-1.48359e+07;-1.3382e+07;1.53747e+07;-6.99414e+08;-1.37515e+07;-5.20839e+08;-4.66603e+08
3;0.377166;0.0698509;-0.390468;-1.11725e-08;-4.56075e-09;3.99927e-09;-0.00108423;-0.000391069;0.000356073;38.9168;-2.69067e+08;1.63483;7.52733e+08;2.06534e+09;0;0;1e+30;-0.0865371;428.496;1.33547e+09;109688;2.12671;3516.69;0.00523403;6.66354e-07;-2.02874e+07;-3.96246e+08;-3.90668e+08;-2.06244e+07;-3.76533e+08;1.54891e+07;6.98601e+06;-4.41685e+07;-7.70019e+08;0.239899;0.576112;0.0708811;0.0165933;-0.0874743;0.0691007;0.982099;0.0228009;0.0420354;-0.0122525;-0.11632;0.0691007;0.982099;0.0228009;0.432357;0.0367844;0.320624;0.287714;0.0395482;0.039393;-0.00185652;-0.00296755;-0.558442;-0.0136295;0.373724;-0.414731;-0.0865371;-0.105979;-2.02875e+07;-3.96246e+08;-3.90668e+08;-2.06243e+07;-3.76533e+08;1.5489e+07;6.98589e+06;4.77495e+06;-3.60855e+06;3.60288e+06;-4.41683e+07;-3.22394e+07;-2.11509e+07;2.15431e+07;-7.70019e+08;-3.83096e+06;-5.46583e+08;-5.42367e+08
4;0.377031;0.07325;-0.387062;-1.11713e-08;-4.80877e-09;3.7548e-09;-0.00108346;-0.000417397;0.000327512;38.945;-2.73553e+08;1.65002;7.58943e+08;2.04909e+09;0;0;1e+30;-0.0895302;428.496;1.33547e+09;109691;2.12675;3515.86;0.00524168;4.19234e-06;2.22777e+07;-3.39431e+08;-5.03506e+08;-4.33114e+07;-3.41938e+08;2.8868e+07;4.56176e+07;-9.3145e+07;-7.73132e+08;0.241879;0.54709;-0.0174977;-0.0419629;0.0594605;0.115774;0.933539;-0.0426578;-0.0473411;-0.0718063;0.0296171;0.115774;0.933539;-0.0426578;0.449474;0.0207361;0.300792;0.333348;-0.0410898;-0.0407163;-0.00259951;0.00487841;-0.497914;0.0629221;-0.368644;0.328727;-0.0895302;-0.108945;2.22777e+07;-3.39431e+08;-5.03506e+08;-4.33112e+07;-3.41938e+08;2.88678e+07;4.56174e+07;4.16079e+07;-1.48151e+07;1.14127e+07;-9.31448e+07;-3.81823e+07;-6.65715e+07;5.27854e+07;-7.73132e+08;-4.05054e+06;-4.78915e+08;-6.06924e+08
5;0.378442;0.0800246;-0.376886;-1.13043e-08;-5.31129e-09;3.04033e-09;-0.0010971;-0.000464168;0.000252377;38.9443;-3.09105e+08;1.63783;6.9405e+08;2.044e+09;0;0;1e+30;-0.0798538;428.496;1.33547e+09;109687;2.12674;3515.49;0.00524145;7.18258e-06;-5.52725e+07;-2.75459e+08;-5.96584e+08;-8.72781e+07;-2.78722e+08;3.4084e+07;1.25717e+07;-1.81913e+08;-7.57974e+08;0.221198;0.598559;0.0301364;-0.18188;0.151743;0.0969062;0.928737;0.298075;0.00351845;-0.208498;0.125125;0.0969062;0.928737;0.298075;0.497353;0.144894;0.268395;0.392848;-0.0380118;-0.0362077;0.00911752;0.00712534;-0.539195;-0.0476125;-0.43513;0.314843;-0.0798538;-0.0990572;-5.52725e+07;-2.75459e+08;-5.96584e+08;-8.72781e+07;-2.78722e+08;3.40839e+07;1.25716e+07;1.01543e+07;-6.50846e+06;3.54614e+06;-1.81913e+08;-1.07185e+08;-1.25915e+08;7.58237e+07;-7.57974e+08;-1.55725e+07;-3.81162e+08;-6.5498e+08
6;0.378295;0.0852399;-0.367613;-1.13389e-08;-5.69225e-09;2.38176e-09;-0.00109909;-0.000502102;0.000194325;38.9877;-3.91076e+08;1.28192;7.16042e+08;2.03075e+09;0;0;1e+30;-0.0820086;428.496;1.33548e+09;109688;2.12673;3513.21;0.00525306;3.12677e-06;-1.24965e+08;-3.00081e+08;-7.48183e+08;-1.12559e+08;-2.30882e+08;4.02381e+07;-3.81832e+07;-2.89125e+08;-8.4592e+08;0.228209;0.528338;0.0238508;-0.276851;0.253;-0.00424941;0.742792;0.0567147;-0.00348541;-0.304187;0.225664;-0.00424941;0.742792;0.0567147;0.418334;0.0240114;0.190877;0.371474;-0.00442909;-0.00441977;0.000235414;0.000164721;-0.495914;-0.0149908;-0.440494;0.227311;-0.0820086;-0.100724;-1.24965e+08;-3.00081e+08;-7.48183e+08;-1.12559e+08;-2.30882e+08;4.02381e+07;-3.81832e+07;-3.08879e+07;2.07736e+07;-8.5058e+06;-2.89126e+08;-1.69951e+08;-2.14603e+08;9.30371e+07;-8.4592e+08;-8.22548e+06;-3.30966e+08;-7.78444e+08
7;0.37717;0.0888642;-0.357869;-1.1316e-08;-5.96569e-09;1.67754e-09;-0.00108719;-0.00052443;0.000122561;39.0717;-3.75712e+08;1.23148;7.5994e+08;2.02485e+09;0;0;1e+30;-0.0809889;428.496;1.33548e+09;109689;2.12677;3510.46;0.00527579;5.60205e-06;-1.32842e+08;-1.78538e+08;-8.15758e+08;-9.52846e+07;-1.91121e+08;3.38372e+07;-2.82729e+07;-2.30108e+08;-8.68756e+08;0.242204;0.514907;-0.0158232;-0.329521;0.345344;-0.00160111;0.580154;0.0511153;-0.0428194;-0.356518;0.318348;-0.00160111;0.580154;0.0511153;0.427087;0.0215046;0.14806;0.400024;-0.043793;-0.0437259;0.00170646;0.00171902;-0.464283;-0.0106271;-0.435115;0.161619;-0.0809889;-0.0997959;-1.32842e+08;-1.78538e+08;-8.15758e+08;-9.52846e+07;-1.91121e+08;3.38372e+07;-2.82729e+07;1.96334e+07;-1.95609e+07;5.591e+06;-2.30108e+08;-1.65562e+08;-1.54499e+08;4.08534e+07;-8.68756e+08;8.6363e+06;-2.30715e+08;-8.37516e+08
8;0.376861;0.0909439;-0.345604;-1.13677e-08;-6.12902e-09;7.91293e-10;-0.00108414;-0.000538064;3.54877e-05;39.1275;-3.98307e+08;1.25203;7.62655e+08;2.00596e+09;0;0;1e+30;-0.0775901;428.496;1.33548e+09;109687;2.12668;3506.2;0.00529081;6.48875e-06;-1.00416e+08;-2.09333e+08;-8.85172e+08;-1.00797e+08;-5.43377e+07;4.95581e+06;-3.90778e+07;-2.66318e+08;-8.89525e+08;0.243072;0.465233;0.0363326;-0.419206;0.382873;0.0103504;0.0270957;-0.0345514;0.0104692;-0.445069;0.35701;0.0103504;0.0270957;-0.0345514;0.358088;-0.0176837;0.00591818;0.357602;0.0096851;0.00967258;0.000124265;0.000476261;-0.445363;0.00534455;-0.445266;0.00763327;-0.0775901;-0.0962616;-1.00416e+08;-2.09333e+08;-8.85172e+08;-1.00797e+08;-5.43377e+07;4.95582e+06;-3.90778e+07;-3.33908e+07;2.02459e+07;-1.49581e+06;-2.66318e+08;-1.38349e+08;-2.26784e+08;1.88046e+07;-8.89525e+08;-3.5463e+06;-7.13564e+07;-8.86651e+08
9;0.37673;0.0912001;-0.334729;-1.14292e-08;-6.1615e-09;4.86095e-12;-0.00108237;-0.000539537;-4.15376e-05;39.1704;-3.78141e+08;1.32014;7.62351e+08;2.00803e+09;0;0;1e+30;-0.0767949;428.497;1.33548e+09;109688;2.12667;3502.33;0.00530236;3.75985e-06;-8.13478e+07;-1.82363e+08;-8.70711e+08;-9.11276e+07;2.46837e+07;1.70958e+07;-2.7661e+07;-2.34634e+08;-8.72127e+08;0.242977;0.62421;0.105577;-0.564115;0.458538;0.139681;-0.234;-0.12406;0.0799788;-0.589713;0.432939;0.139681;-0.234;-0.12406;0.459014;-0.083536;-0.0555347;0.447919;0.0728184;0.0712958;0.00505682;0.0139235;-0.608627;0.0553238;-0.602676;-0.0644043;-0.0767949;-0.0955865;-8.13478e+07;-1.82363e+08;-8.70711e+08;-9.11276e+07;2.46837e+07;1.70958e+07;-2.7661e+07;-2.38384e+07;1.40305e+07;-72607.9;-2.34634e+08;-1.18858e+08;-2.02001e+08;-1.10334e+07;-8.72127e+08;2.27728e+07;3.41836e+07;-8.71159e+08
10;0.376095;0.0900943;-0.324103;-1.14615e-08;-6.08636e-09;-7.74465e-10;-0.00107707;-0.000530785;-0.000116507;39.2354;-4.05539e+08;1.24753;7.4552e+08;2.02319e+09;0;0;1e+30;-0.076583;428.497;1.33548e+09;109693;2.12669;3498.41;0.00531991;6.72139e-07;-1.53857e+08;-1.82024e+08;-8.80737e+08;-8.30522e+07;9.01661e+07;2.61042e+07;-8.17678e+07;-2.40858e+08;-8.93992e+08;0.237615;0.583094;0.132003;-0.52342;0.391417;0.042805;-0.356949;-0.0393391;0.106476;-0.548948;0.365889;0.042805;-0.356949;-0.0393391;0.401316;-0.0316328;-0.0745359;0.393063;0.105074;0.104713;0.00107158;0.00863026;-0.582973;0.0147163;-0.572799;-0.107435;-0.076583;-0.0952116;-1.53857e+08;-1.82024e+08;-8.80737e+08;-8.30522e+07;9.0166e+07;2.61042e+07;-8.17678e+07;-6.10243e+07;5.42674e+07;4.13044e+06;-2.40858e+08;-1.59868e+08;-1.77374e+08;-3.15159e+07;-8.93992e+08;4.43787e+07;1.17276e+08;-8.85154e+08
11;0.375717;0.0889362;-0.319415;-1.14706e-08;-6.0047e-09;-1.11864e-09;-0.00107383;-0.000522401;-0.0001492;39.2826;-3.28834e+08;1.28957;7.51838e+08;2.0183e+09;0;0;1e+30;-0.077161;428.497;1.33548e+09;109698;2.12675;3497.06;0.00533273;8.50862e-07;-5.78306e+07;-1.63643e+08;-7.65029e+08;-6.5869e+07;1.96345e+08;-5.6072e+06;-1.2442e+07;-1.50367e+08;-8.23694e+08;0.239631;0.652293;0.128456;-0.56501;0.436553;0.0468351;-0.466533;-0.0630814;0.102736;-0.59073;0.410833;0.0468351;-0.466533;-0.0630814;0.466038;-0.0458049;-0.100934;0.452665;0.0995404;0.0990352;-2.48877e-05;0.0100158;-0.642739;0.0138507;-0.627484;-0.138513;-0.077161;-0.096247;-5.78306e+07;-1.63643e+08;-7.65029e+08;-6.5869e+07;1.96345e+08;-5.60719e+06;-1.24421e+07;-1.02028e+07;6.87138e+06;1.86872e+06;-1.50367e+08;-8.60187e+07;-1.1771e+08;-3.68162e+07;-8.23694e+08;1.45339e+07;2.36149e+08;-7.88983e+08
12;0.375319;0.086914;-0.313575;-1.14932e-08;-5.8604e-09;-1.55112e-09;-0.00107039;-0.000507562;-0.000189919;39.3281;-3.43828e+08;1.25709;7.52597e+08;2.01642e+09;0;0;1e+30;-0.079886;428.496;1.33548e+09;109700;2.12671;3495.61;0.00534503;1.15353e-06;-5.81097e+07;-2.47621e+08;-7.25754e+08;-7.26952e+07;2.54747e+08;-1.55196e+07;-1.45814e+07;-1.80583e+08;-8.36321e+08;0.239875;0.648346;0.138781;-0.541128;0.402347;-0.0110802;-0.559293;-0.0141328;0.112153;-0.567757;0.375718;-0.0110802;-0.559293;-0.0141328;0.452461;-0.00711369;-0.119559;0.436321;0.112137;0.112118;-0.00149675;0.00141782;-0.644484;-0.0061422;-0.621518;-0.170406;-0.079886;-0.0988823;-5.81097e+07;-2.47621e+08;-7.25754e+08;-7.26952e+07;2.54747e+08;-1.55196e+07;-1.45814e+07;-1.25367e+07;6.91915e+06;2.75207e+06;-1.80583e+08;-9.21558e+07;-1.41685e+08;-6.35831e+07;-8.36321e+08;1.58849e+07;3.33728e+08;-7.66685e+08
13;0.375026;0.0840543;-0.308417;-1.15189e-08;-5.65858e-09;-1.93419e-09;-0.00106747;-0.000486638;-0.000225503;39.3534;-3.62943e+08;1.2699;7.4877e+08;2.02243e+09;0;0;1e+30;-0.0894205;428.496;1.33548e+09;109700;2.12669;3494.08;0.00535184;6.65489e-07;-9.34322e+07;-2.98433e+08;-6.96963e+08;-7.10022e+07;2.94819e+08;-2.72479e+07;-3.82997e+07;-1.96874e+08;-8.53656e+08;0.238656;0.572829;0.137039;-0.352781;0.215742;-0.0107174;-0.772837;-0.0863192;0.107232;-0.382588;0.185935;-0.0107174;-0.772837;-0.0863192;0.386068;-0.0496688;-0.171688;0.342206;0.103409;0.102485;-0.00926229;0.0102279;-0.578898;-0.0204978;-0.515906;-0.261809;-0.0894205;-0.108303;-9.34322e+07;-2.98433e+08;-6.96963e+08;-7.10022e+07;2.94819e+08;-2.72479e+07;-3.82997e+07;-3.09482e+07;2.00889e+07;1.02721e+07;-1.96874e+08;-1.15955e+08;-1.39742e+08;-7.60645e+07;-8.53656e+08;1.04844e+07;4.01361e+08;-7.53344e+08
14;0.374733;0.0825457;-0.306009;-1.15214e-08;-5.55093e-09;-2.11399e-09;-0.00106494;-0.000475822;-0.000242219;39.3708;-2.88767e+08;1.32445;7.60947e+08;2.02884e+09;0;0;1e+30;-0.0900628;428.496;1.33548e+09;109701;2.12667;3493.51;0.00535657;2.56305e-07;-2.08868e+07;-2.73169e+08;-5.72245e+08;-4.38639e+07;3.36667e+08;-3.95381e+07;2.31363e+07;-9.82344e+07;-7.91202e+08;0.242538;0.604958;0.117332;-0.290053;0.17272;0.00426667;-0.912348;-0.100332;0.0873112;-0.320073;0.1427;0.00426667;-0.912348;-0.100332;0.428465;-0.054734;-0.221259;0.36281;0.0825308;0.081802;-0.00801264;0.00745425;-0.601059;-0.0213785;-0.511397;-0.3151;-0.0900628;-0.109387;-2.08867e+07;-2.73169e+08;-5.72245e+08;-4.38639e+07;3.36667e+08;-3.95382e+07;2.31363e+07;1.84818e+07;-1.15536e+07;-7.76051e+06;-9.82344e+07;-5.90827e+07;-6.62269e+07;-4.21097e+07;-7.91202e+08;-9.55093e+06;4.30547e+08;-6.63731e+08
15;0.374618;0.0807051;-0.303197;-1.15414e-08;-5.41751e-09;-2.32256e-09;-0.00106416;-0.00046245;-0.000262119;39.3903;-3.1069e+08;1.32461;7.67826e+08;2.02463e+09;0;0;1e+30;-0.0913879;428.495;1.33547e+09;109704;2.12665;3493.34;0.00536185;2.71512e-07;-3.08413e+07;-3.03561e+08;-5.97669e+08;-3.68263e+07;3.37737e+08;-2.7112e+07;-4.14067e+06;-1.08945e+08;-8.18986e+08;0.244732;0.61391;0.1202;-0.23336;0.11316;0.0263356;-0.979043;-0.0895408;0.0897371;-0.263823;0.0826978;0.0263356;-0.979043;-0.0895408;0.434378;-0.0552411;-0.24804;0.352291;0.0844014;0.0836962;-0.0076815;0.00771565;-0.610168;-0.0131868;-0.49782;-0.352571;-0.0913879;-0.110581;-3.08413e+07;-3.03561e+08;-5.97669e+08;-3.68263e+07;3.37737e+08;-2.7112e+07;-4.14069e+06;-3.57469e+06;1.74187e+06;1.15447e+06;-1.08945e+08;-5.49808e+07;-7.87742e+07;-5.13875e+07;-8.18986e+08;-2.60018e+06;4.48735e+08;-6.85104e+08
16;0.37417;0.0790701;-0.301275;-1.15299e-08;-5.2994e-09;-2.46849e-09;-0.00106084;-0.000450704;-0.000275609;39.4026;-3.04096e+08;1.33665;7.60995e+08;2.03408e+09;0;0;1e+30;-0.091152;428.495;1.33547e+09;109704;2.12662;3492.89;0.00536518;1.59642e-07;-3.61567e+07;-3.21581e+08;-5.54549e+08;-4.17935e+07;3.51394e+08;-2.00333e+07;-3.66741e+06;-1.00269e+08;-8.08351e+08;0.242555;0.611478;0.112469;-0.205911;0.0934415;0.0101372;-0.99352;-0.0834875;0.0820852;-0.236295;0.0630575;0.0101372;-0.99352;-0.0834875;0.435976;-0.044816;-0.25794;0.348616;0.0789419;0.0784873;-0.00675819;0.00508948;-0.606069;-0.018371;-0.485852;-0.361843;-0.091152;-0.110384;-3.61567e+07;-3.21581e+08;-5.54549e+08;-4.17935e+07;3.51394e+08;-2.00333e+07;-3.66743e+06;-2.98961e+06;1.73993e+06;1.21858e+06;-1.00269e+08;-5.80669e+07;-6.58773e+07;-4.83966e+07;-8.08351e+08;8.63905e+06;4.73599e+08;-6.55027e+08
17;0.37435;0.0771574;-0.299099;-1.15654e-08;-5.16188e-09;-2.62826e-09;-0.00106243;-0.000437054;-0.000291046;39.4015;-3.98496e+08;1.34425;7.51812e+08;2.03102e+09;0;0;1e+30;-0.0916519;428.496;1.33548e+09;109702;2.12667;3492.53;0.00536486;2.02272e-07;-1.50299e+08;-4.56198e+08;-5.88991e+08;-5.05392e+07;3.66336e+08;-3.22668e+07;-9.07838e+07;-2.09726e+08;-8.94977e+08;0.239628;0.593973;0.0995544;-0.163269;0.0637148;-0.0203181;-0.985214;-0.0780913;0.0690038;-0.19382;0.0331642;-0.0203181;-0.985214;-0.0780913;0.426829;-0.0289144;-0.264451;0.333785;0.0689459;0.0687041;-0.00555815;0.00154793;-0.587427;-0.0288617;-0.458657;-0.365884;-0.0916519;-0.110322;-1.50299e+08;-4.56198e+08;-5.88991e+08;-5.05392e+07;3.66336e+08;-3.22668e+07;-9.07838e+07;6.42095e+07;-4.96496e+07;-4.06664e+07;-2.09726e+08;-1.48247e+08;-1.12806e+08;-9.63477e+07;-8.94977e+08;9.2241e+06;5.7418e+08;-6.86453e+08
18;0.374128;0.0748852;-0.296034;-1.15806e-08;-4.99642e-09;-2.85611e-09;-0.00106094;-0.00042146;-0.000312792;39.4242;-3.97676e+08;1.29302;7.48709e+08;2.0229e+09;0;0;1e+30;-0.0909334;428.496;1.33548e+09;109702;2.12671;3491.92;0.00537099;5.69516e-07;-1.38119e+08;-5.10574e+08;-5.44334e+08;-5.09888e+07;3.61758e+08;-5.07404e+07;-7.85186e+07;-2.24901e+08;-8.89609e+08;0.23864;0.577101;0.106281;-0.116617;0.0103366;-0.0152661;-0.97396;-0.0173512;0.0759695;-0.146928;-0.0199746;-0.0152661;-0.97396;-0.0173512;0.407655;-0.00182277;-0.268963;0.30633;0.0761647;0.0761521;-0.00123248;-0.000629008;-0.574753;-0.0101205;-0.431802;-0.379191;-0.0909334;-0.109609;-1.38119e+08;-5.10574e+08;-5.44334e+08;-5.09888e+07;3.61758e+08;-5.07404e+07;-7.85186e+07;-6.04572e+07;3.61655e+07;3.4672e+07;-2.24901e+08;-1.43503e+08;-1.25493e+08;-1.19326e+08;-8.89609e+08;-1.79426e+06;6.14083e+08;-6.43663e+08
19;0.374928;0.0721399;-0.292538;-1.16737e-08;-4.79619e-09;-3.10824e-09;-0.00106743;-0.000402625;-0.000337762;39.4281;-4.36319e+08;1.20095;7.6044e+08;1.99557e+09;0;0;1e+30;-0.0905876;428.497;1.33548e+09;109696;2.12666;3492.43;0.00537203;1.96611e-06;-1.31914e+08;-6.25311e+08;-5.51732e+08;-5.94692e+07;3.34312e+08;-8.12695e+07;-7.50921e+07;-3.08886e+08;-9.24979e+08;0.24238;0.537265;0.122975;-0.0754631;-0.0475124;-0.0201606;-0.904892;0.0239624;0.0927796;-0.105659;-0.0777083;-0.0201606;-0.904892;0.0239624;0.361885;0.0209684;-0.251469;0.259393;0.091875;0.0917205;0.00381987;-0.00371121;-0.544347;0.000942917;-0.390797;-0.378934;-0.0905876;-0.109033;-1.31914e+08;-6.25311e+08;-5.51732e+08;-5.94691e+07;3.34312e+08;-8.12695e+07;-7.50921e+07;-6.53512e+07;2.41073e+07;2.80515e+07;-3.08886e+08;-1.52093e+08;-1.81225e+08;-1.98584e+08;-9.24979e+08;1.18159e+07;-6.87671e+08;6.1851e+08
20;0.37485;0.066277;-0.287477;-1.17279e-08;-4.37145e-09;-3.48415e-09;-0.00106648;-0.000361447;-0.00037284;39.4584;-4.37189e+08;1.14159;7.70951e+08;1.99172e+09;0;0;1e+30;-0.0893163;428.497;1.33548e+09;109694;2.12679;3492.35;0.00538021;5.15983e-06;-1.59395e+08;-6.88599e+08;-4.63573e+08;-6.98732e+07;3.28568e+08;-1.21437e+08;-5.02773e+07;-3.37649e+08;-9.2364e+08;0.245732;0.52829;0.122508;0.0558665;-0.178375;0.00514445;-0.856161;0.0658801;0.0927361;0.0260944;-0.208147;0.00514445;-0.856161;0.0658801;0.354023;-0.0243291;0.280304;-0.214871;0.0927254;0.0924157;0.00754652;-0.000619318;-0.536064;0.0236448;-0.32452;-0.42602;-0.0893163;-0.107757;-1.59395e+08;-6.88599e+08;-4.63573e+08;-6.98732e+07;3.28568e+08;-1.21437e+08;-5.02772e+07;-3.96203e+07;1.74839e+07;2.55411e+07;-3.37649e+08;-2.07771e+08;-1.58683e+08;-2.13677e+08;-9.2364e+08;1.72484e+07;-7.49347e+08;5.39716e+08
21;0.375012;0.0574346;-0.281316;-1.1821e-08;-3.72049e-09;-3.93921e-09;-0.00106801;-0.000299332;-0.000416269;39.4951;-4.71767e+08;1.08523;7.87971e+08;1.96538e+09;0;0;1e+30;-0.0878344;428.497;1.33548e+09;109695;2.12682;3492.49;0.00539015;9.8217e-06;-1.62823e+08;-8.35451e+08;-4.17028e+08;-7.77809e+07;2.54108e+08;-1.44883e+08;-5.24876e+07;-4.07328e+08;-9.55487e+08;0.251159;0.584843;0.120663;0.213745;-0.334408;-0.0038186;-0.811957;0.150608;0.0913845;0.184467;-0.363686;-0.0038186;-0.811957;0.150608;0.404662;-0.0481569;0.353277;-0.191384;0.0933145;0.0922117;0.014043;0.00271936;-0.585811;0.0565985;-0.271751;-0.51587;-0.0878344;-0.10607;-1.62823e+08;-8.35451e+08;-4.17028e+08;-7.77809e+07;2.54108e+08;-1.44883e+08;-5.24876e+07;-4.35759e+07;1.28586e+07;2.6282e+07;-4.07328e+08;-2.27017e+08;-1.41168e+08;-3.07329e+08;-9.55486e+08;-1.07999e+07;-8.65162e+08;4.05379e+08
22;0.37454;0.0420818;-0.274959;-1.18975e-08;-2.58469e-09;-4.41862e-09;-0.00106454;-0.000190958;-0.000460731;39.567;-4.82637e+08;0.857777;7.91123e+08;1.94942e+09;0;0;1e+30;-0.0883807;428.498;1.33548e+09;109696;2.12682;3491.53;0.00540969;7.9534e-06;-1.76349e+08;-9.11631e+08;-3.59932e+08;-6.23759e+07;1.93808e+08;-1.43945e+08;-6.96989e+07;-4.04964e+08;-9.73249e+08;0.252167;0.443099;0.103913;0.28783;-0.391744;-0.0189711;-0.301843;0.0576829;0.0744531;0.25837;-0.421204;-0.0189711;-0.301843;0.0576829;0.291457;-0.0205363;0.284255;-0.0610284;0.074678;0.0744003;0.0059175;0.00252628;-0.454516;0.0225373;-0.093734;-0.444174;-0.0883807;-0.106551;-1.76349e+08;-9.11631e+08;-3.59932e+08;-6.23759e+07;1.93808e+08;-1.43946e+08;-6.96988e+07;-5.7587e+07;1.28102e+07;3.71155e+07;-4.04964e+08;-2.27971e+08;-9.47286e+07;-3.21017e+08;-9.73249e+08;-2.05644e+07;-9.29186e+08;2.88797e+08
23;0.374495;0.031387;-0.274021;-1.19436e-08;-1.79154e-09;-4.49323e-09;-0.00106355;-0.0001159;-0.000466475;39.5567;-4.21065e+08;0.860862;7.79448e+08;1.95499e+09;0;0;1e+30;-0.0880955;428.498;1.33548e+09;109697;2.12684;3492.04;0.00540688;7.90393e-06;-1.64289e+08;-9.0021e+08;-1.98695e+08;-2.50306e+07;8.52748e+07;-1.48773e+08;-2.51733e+07;-3.27522e+08;-9.10499e+08;0.248445;0.301599;0.0975599;0.1981;-0.29566;0.0144737;-0.0111022;0.0141792;0.0681947;0.168735;-0.325025;0.0144737;-0.0111022;0.0141792;0.169304;0.011966;0.168872;-0.00172475;0.0678184;0.0676375;-0.00477952;0.00128818;-0.325218;0.00592811;-0.00374084;-0.325143;-0.0880955;-0.106633;-1.64289e+08;-9.0021e+08;-1.98695e+08;-2.50306e+07;8.52748e+07;-1.48773e+08;-2.51732e+07;-1.84997e+07;2.17928e+06;1.69322e+07;-3.27522e+08;-2.22094e+08;-2.59279e+07;-2.39317e+08;-9.10499e+08;-9.11331e+06;-9.04212e+08;1.06421e+08
24;0.374277;0.0202901;-0.275715;-1.1964e-08;-9.92745e-10;-4.37488e-09;-0.00106304;-3.78254e-05;-0.000453629;39.5535;-4.72786e+08;0.89931;7.6607e+08;1.96999e+09;0;0;1e+30;-0.0884759;428.498;1.33548e+09;109697;2.12685;3491.98;0.00540601;6.64543e-06;-1.98262e+08;-9.50774e+08;-2.6932e+08;1.49514e+06;1.63461e+07;-1.5078e+08;-7.879e+07;-3.88365e+08;-9.51202e+08;0.244181;0.218395;0.064546;0.132191;-0.196737;0.0178514;0.140265;-0.049029;0.0350541;0.102699;-0.226229;0.0178514;0.140265;-0.049029;0.117211;0.00559563;0.114788;0.0230411;0.0372663;0.037064;-0.00105808;-0.00372991;-0.242954;-0.022458;0.0486608;-0.236969;-0.0884759;-0.106705;-1.98263e+08;-9.50774e+08;-2.6932e+08;1.49513e+06;1.63461e+07;-1.5078e+08;-7.87899e+07;-6.17467e+07;811438;4.8934e+07;-3.88365e+08;-2.41219e+08;-9.48329e+06;-3.04221e+08;-9.51202e+08;6.75179e+06;-9.50868e+08;2.42872e+07
25;0.37437;0.00251023;-0.272007;-1.20574e-08;3.1467e-10;-4.62484e-09;-0.00106222;8.76225e-05;-0.000481094;39.5891;-4.49856e+08;1.16726;7.86073e+08;1.98435e+09;0;0;1e+30;-0.0912481;428.498;1.33548e+09;109698;2.12685;3493.85;0.00541578;1.6242e-05;-1.61079e+08;-9.35826e+08;-2.52663e+08;3.02689e+07;-5.28218e+07;-1.51796e+08;-4.48178e+07;-3.64403e+08;-9.40348e+08;0.250558;0.272439;0.0417884;0.206447;-0.248236;-0.0464886;-0.0688314;0.0615979;0.0113724;0.176031;-0.278652;-0.0464886;-0.0688314;0.0615979;0.18246;-0.0271677;0.179782;-0.0152329;0.0103875;0.0102211;0.0016205;0.000896175;-0.284096;0.0278504;-0.0196886;-0.282041;-0.0912481;-0.109614;-1.6108e+08;-9.35826e+08;-2.52663e+08;3.02689e+07;-5.28218e+07;-1.51796e+08;-4.48177e+07;-3.57792e+07;-2.80687e+06;2.6844e+07;-3.64403e+08;-2.19265e+08;1.52531e+07;-2.90655e+08;-9.40348e+08;2.33982e+07;-9.37676e+08;-6.68591e+07
26;0.37476;-0.0143871;-0.274743;-1.21356e-08;1.56183e-09;-4.39613e-09;-0.00106699;0.000205942;-0.000462706;39.5777;-5.00679e+08;1.17209;7.73387e+08;1.98907e+09;0;0;1e+30;-0.0905712;428.497;1.33548e+09;109705;2.12687;3493.36;0.00541278;1.09172e-05;-1.63343e+08;-9.32862e+08;-4.05831e+08;4.64628e+07;-1.4399e+08;-1.47298e+08;-8.07671e+07;-4.51537e+08;-9.69732e+08;0.246513;0.317034;0.0911578;0.194685;-0.285843;-0.0529656;0.205082;0.028838;0.0609674;0.164494;-0.316033;-0.0529656;0.205082;0.028838;0.189617;-0.0336324;0.183072;0.0361662;0.0577606;0.0567749;0.00948358;0.00479166;-0.337949;0.0164844;0.0683306;-0.330558;-0.0905712;-0.108635;-1.63343e+08;-9.32862e+08;-4.0583e+08;4.64628e+07;-1.4399e+08;-1.47298e+08;-8.07672e+07;-7.12154e+07;-1.00918e+07;3.67405e+07;-4.51537e+08;-2.12949e+08;9.51093e+07;-3.86643e+08;-9.69732e+08;1.08366e+07;-9.402e+08;-2.37246e+08
27;0.375534;-0.0307256;-0.285183;-1.21818e-08;2.76511e-09;-3.61798e-09;-0.00107289;0.000320554;-0.000389147;39.4398;-4.61587e+08;1.10726;7.67273e+08;1.98371e+09;0;0;1e+30;-0.0909198;428.497;1.33548e+09;109695;2.12682;3496.54;0.00537545;1.66768e-05;-1.49531e+08;-7.21319e+08;-5.1391e+08;9.32598e+07;-3.01157e+08;-1.14256e+08;-5.91559e+07;-3.89356e+08;-9.36249e+08;0.244559;0.356055;0.094394;0.129094;-0.223488;-0.00333874;0.470983;-0.0862836;0.0640874;0.0987875;-0.253795;-0.00333874;0.470983;-0.0862836;0.219493;-0.0295744;0.193633;0.0990407;0.0645238;0.0636942;0.010261;-0.00104144;-0.374937;-0.0322428;0.16619;-0.334543;-0.0909198;-0.109216;-1.49531e+08;-7.21319e+08;-5.1391e+08;9.32597e+07;-3.01157e+08;-1.14256e+08;-5.91561e+07;-5.04241e+07;-1.84081e+07;2.48595e+07;-3.89355e+08;-2.03536e+08;1.8983e+08;-2.72278e+08;-9.36249e+08;1.19115e+07;-7.63754e+08;-5.41387e+08
28;0.378304;-0.0433057;-0.296618;-1.23375e-08;3.67409e-09;-2.76035e-09;-0.00109387;0.000409971;-0.000309529;39.261;-4.13582e+08;1.06674;7.53734e+08;1.98368e+09;0;0;1e+30;-0.0902879;428.497;1.33548e+09;109689;2.12671;3496.94;0.00532696;6.94293e-06;-1.3284e+08;-5.49499e+08;-5.58407e+08;9.41103e+07;-3.40025e+08;-7.59326e+07;-4.62935e+07;-3.00249e+08;-8.94204e+08;0.240235;0.401343;0.0894513;0.0798942;-0.169346;-0.0160151;0.610586;-0.155025;0.0593553;0.0497983;-0.199441;-0.0160151;0.610586;-0.155025;0.26721;-0.0638841;0.212135;0.149395;0.0547339;0.0526906;0.0147267;0.00162011;-0.412232;-0.0523247;0.224788;-0.341566;-0.0902879;-0.108869;-1.3284e+08;-5.49499e+08;-5.58407e+08;9.41103e+07;-3.40025e+08;-7.59326e+07;-4.62935e+07;-3.7604e+07;-1.9589e+07;1.8582e+07;-3.00249e+08;1.7505e+08;-1.71101e+08;1.73872e+08;-8.94204e+08;1.45765e+07;-6.29892e+08;-6.34527e+08
29;0.378513;-0.0475187;-0.301454;-1.23331e-08;3.97e-09;-2.40809e-09;-0.00109581;0.000440278;-0.000275532;39.2543;-3.68175e+08;1.06863;6.06873e+08;1.9891e+09;0;0;1e+30;-0.0902792;428.497;1.33548e+09;109688;2.12662;3497.08;0.00532526;1.46125e-06;-1.35144e+08;-4.23171e+08;-5.46211e+08;7.71933e+07;-2.65712e+08;-4.11231e+07;-7.90864e+07;-2.67596e+08;-7.57844e+08;0.193426;0.385099;0.0758389;0.0151702;-0.091009;0.0387307;0.643568;-0.0263742;0.0457458;-0.0149229;-0.121102;0.0387307;0.643568;-0.0263742;0.258305;0.00760013;0.19704;0.16685;0.0467189;0.0466375;0.000497144;-0.00271147;-0.395303;-0.0202182;0.255573;-0.300896;-0.0902792;-0.10913;-1.35144e+08;-4.23171e+08;-5.46211e+08;7.71933e+07;-2.65712e+08;-4.11231e+07;-7.90864e+07;-6.63752e+07;-3.46032e+07;2.55265e+07;-2.67596e+08;1.45327e+08;-1.72928e+08;1.43469e+08;-7.57844e+08;1.97045e+07;-4.7385e+08;-5.91105e+08
30;0.378231;-0.0513181;-0.306563;-1.22916e-08;4.23533e-09;-2.03707e-09;-0.00109386;0.0004673;-0.000239577;39.2558;-3.95384e+08;1.07233;7.16837e+08;1.97947e+09;0;0;1e+30;-0.0906886;428.497;1.33548e+09;109689;2.1267;3500.92;0.00532569;4.9385e-06;-8.63253e+07;-4.5403e+08;-6.45797e+08;8.36754e+07;-2.83455e+08;-5.57239e+07;-3.86921e+07;-2.98297e+08;-8.49163e+08;0.228475;0.402435;0.0662073;-0.0496121;-0.0165952;0.0977927;0.671965;0.102567;0.0359778;-0.0798416;-0.0468247;0.0977927;0.671965;0.102567;0.292618;0.0778777;0.194499;0.204282;0.016414;0.015822;-0.00301079;-0.00316518;-0.399721;4.77622e-05;-0.289501;0.275619;-0.0906886;-0.109378;-8.63254e+07;-4.5403e+08;-6.45797e+08;8.36754e+07;-2.83455e+08;-5.57239e+07;-3.86922e+07;-3.49637e+07;-1.35525e+07;9.53679e+06;-2.98297e+08;1.27752e+08;-2.18551e+08;1.57786e+08;-8.49163e+08;3.98124e+06;-4.95523e+08;-6.89579e+08
31;0.375326;-0.0543766;-0.312133;-1.20697e-08;4.46727e-09;-1.65165e-09;-0.00107272;0.00048916;-0.000200384;39.3414;-3.72087e+08;1.16947;7.70053e+08;1.99086e+09;0;0;1e+30;-0.0896762;428.496;1.33548e+09;109699;2.12682;3505.23;0.00534906;4.92186e-06;-4.99683e+07;-3.79653e+08;-6.86641e+08;8.45432e+07;-2.82892e+08;-9.54155e+07;1.65036e+07;-2.75851e+08;-8.56914e+08;0.24544;0.39652;0.0405552;-0.0934538;0.0528987;0.0307798;0.660666;0.0889035;0.0106631;-0.123346;0.0230066;0.0307798;0.660666;0.0889035;0.29508;0.045469;0.181688;0.228022;0.00438547;0.00432957;-0.000559058;-0.000417884;-0.389142;-0.0155027;-0.302589;0.244194;-0.0896762;-0.108505;-4.99683e+07;-3.79653e+08;-6.86641e+08;8.45432e+07;-2.82892e+08;-9.54155e+07;1.65035e+07;1.45519e+07;6.3359e+06;-4.52376e+06;-2.75851e+08;1.29411e+08;-2.13641e+08;1.17066e+08;-8.56914e+08;-4.23028e+07;-4.30847e+08;-7.39515e+08
32;0.373336;-0.0568807;-0.317789;-1.19054e-08;4.65349e-09;-1.24716e-09;-0.00105813;0.000506621;-0.000160401;39.3879;-4.47751e+08;1.27086;7.62269e+08;2.00549e+09;0;0;1e+30;-0.0892761;428.495;1.33547e+09;109709;2.12685;3508.87;0.0053618;4.08198e-06;-1.65084e+08;-3.56934e+08;-8.21236e+08;1.058e+08;-2.49669e+08;-7.9605e+07;-7.05818e+07;-3.41392e+08;-9.3128e+08;0.24296;0.403682;0.0164282;-0.134664;0.118236;-0.0297807;0.645622;0.0799649;-0.0133305;-0.164423;0.0884772;-0.0297807;0.645622;0.0799649;0.310604;0.0236804;0.173563;0.256496;-0.0119673;-0.0118807;0.00143165;0.000128107;-0.387913;-0.0360015;-0.318335;0.218731;-0.0892761;-0.107655;-1.65084e+08;-3.56934e+08;-8.21236e+08;1.058e+08;-2.49669e+08;-7.96049e+07;-7.05818e+07;-5.71132e+07;-3.71582e+07;1.84156e+07;-3.41392e+08;2.00092e+08;-2.57577e+08;1.00826e+08;-9.3128e+08;-3.853e+07;-3.6497e+08;-8.55917e+08
33;0.37333;-0.0601399;-0.327331;-1.18498e-08;4.87898e-09;-5.44648e-10;-0.00105843;0.00052941;-9.40223e-05;39.3553;-4.5667e+08;1.31389;7.62369e+08;2.00334e+09;0;0;1e+30;-0.0881201;428.496;1.33547e+09;109702;2.12683;3513.54;0.00535308;8.10346e-06;-1.95043e+08;-2.88859e+08;-8.86106e+08;1.37681e+08;-1.79455e+08;-4.54219e+07;-7.05554e+07;-3.63506e+08;-9.35948e+08;0.242991;0.400629;0.0362819;-0.233305;0.197024;-0.0614394;0.535748;0.0397165;0.00690856;-0.262679;0.16765;-0.0614394;0.535748;0.0397165;0.296147;0.00476804;0.127782;0.267119;0.0101153;0.0100729;-0.000891912;0.000246864;-0.394383;-0.0355187;-0.354078;0.170014;-0.0881201;-0.106446;-1.95043e+08;-2.88859e+08;-8.86106e+08;1.37681e+08;-1.79455e+08;-4.54219e+07;-7.05554e+07;-5.35126e+07;-4.41934e+07;1.27048e+07;-3.63506e+08;2.36882e+08;-2.6645e+08;7.0907e+07;-9.35948e+08;-9.17991e+06;-2.48297e+08;-9.02365e+08
34;0.37447;-0.0615599;-0.332887;-1.18926e-08;4.9726e-09;-1.31143e-10;-0.00106728;0.000540028;-5.48506e-05;39.2942;-4.04026e+08;1.28491;7.41027e+08;2.01083e+09;0;0;1e+30;-0.0872057;428.496;1.33548e+09;109696;2.12679;3515.01;0.00533653;7.0377e-06;-1.50067e+08;-2.00197e+08;-8.61814e+08;1.23308e+08;-9.96432e+07;-1.0041e+07;-4.30266e+07;-2.92464e+08;-8.76587e+08;0.236186;0.410039;0.0746508;-0.307644;0.232993;-0.0540329;0.438404;0.0164606;0.0455822;-0.336712;0.203925;-0.0540329;0.438404;0.0164606;0.281638;-0.00152208;0.0941592;0.265428;0.0472994;0.0472106;-0.00263359;0.00120498;-0.416143;-0.0253812;-0.391512;0.138742;-0.0872057;-0.105844;-1.50067e+08;-2.00197e+08;-8.61814e+08;1.23308e+08;-9.96432e+07;-1.0041e+07;-4.30266e+07;-3.2518e+07;-2.79188e+07;3.79638e+06;-2.92464e+08;1.91489e+08;-2.18298e+08;3.48278e+07;-8.76587e+08;1.00036e+07;-1.29533e+08;-8.66906e+08
35;0.377206;-0.0630119;-0.344228;-1.20139e-08;5.03889e-09;7.03531e-10;-0.00108554;0.000552196;2.32876e-05;39.1403;-4.43709e+08;1.2312;6.96733e+08;2.00239e+09;0;0;1e+30;-0.0862462;428.496;1.33548e+09;109691;2.12678;3516.22;0.00529475;9.17673e-06;-1.6705e+08;-2.73062e+08;-8.91014e+08;8.69963e+07;-1.68813e+07;3.29815e+07;-1.17638e+08;-3.20265e+08;-8.93224e+08;0.222062;0.482319;0.15693;-0.454305;0.297375;-0.0313037;0.239309;-0.0272733;0.128182;-0.483054;0.268626;-0.0313037;0.239309;-0.0272733;0.288785;-0.0284511;0.0445886;0.2839;0.126894;0.126248;-0.000735046;0.0127674;-0.501925;-0.0106557;-0.495897;0.0768166;-0.0862462;-0.104648;-1.6705e+08;-2.73062e+08;-8.91014e+08;8.69962e+07;-1.68813e+07;3.29815e+07;-1.17638e+08;-1.02759e+08;-5.71776e+07;-3.13422e+06;-3.20265e+08;1.55092e+08;-2.79676e+08;1.72343e+07;-8.93224e+08;4.41449e+07;-3.0463e+07;-8.91612e+08
36;0.37773;-0.0626548;-0.354685;-1.19722e-08;5.00374e-09;1.45861e-09;-0.00109145;0.000551244;9.90662e-05;39.0517;-3.83169e+08;1.2949;7.48124e+08;2.01606e+09;0;0;1e+30;-0.083433;428.496;1.33547e+09;109686;2.12667;3520.21;0.00527074;3.26313e-06;-9.69316e+07;-1.95657e+08;-8.56918e+08;7.67992e+07;8.36566e+07;5.38613e+07;-4.54547e+07;-2.34182e+08;-8.6987e+08;0.238437;0.486408;0.129227;-0.469454;0.340226;-0.0259487;-0.0505729;-0.0294578;0.101416;-0.497265;0.312415;-0.0259487;-0.0505729;-0.0294578;0.314169;-0.0211161;-0.00942616;0.313317;0.100752;0.100499;-0.00246365;0.00669907;-0.498354;-0.0111588;-0.497981;-0.0157338;-0.083433;-0.102195;-9.69317e+07;-1.95657e+08;-8.56919e+08;7.67991e+07;8.36566e+07;5.38613e+07;-4.54547e+07;-3.9059e+07;-2.27195e+07;-4.93479e+06;-2.34182e+08;1.1902e+08;-2.00988e+08;-1.6706e+07;-8.6987e+08;5.00351e+07;1.0132e+08;-8.62499e+08
37;0.377662;-0.0606303;-0.36501;-1.18939e-08;4.8432e-09;2.19396e-09;-0.00109185;0.000536014;0.000173911;39.0328;-3.7827e+08;1.35924;7.38607e+08;2.00791e+09;0;0;1e+30;-0.080929;428.496;1.33547e+09;109686;2.12663;3520.95;0.00526573;1.98966e-05;-1.0356e+08;-2.37243e+08;-7.94005e+08;1.00717e+08;1.82384e+08;6.59108e+07;-2.02673e+07;-2.64486e+08;-8.50055e+08;0.235403;0.550132;0.0998427;-0.48639;0.386547;-0.0224533;-0.338524;-0.0301263;0.0728664;-0.513367;0.359571;-0.0224533;-0.338524;-0.0301263;0.391751;-0.0156504;-0.0717662;0.384803;0.0726654;0.0725892;-0.00212863;0.00255529;-0.545346;-0.0121787;-0.535879;-0.100437;-0.080929;-0.0997194;-1.0356e+08;-2.37243e+08;-7.94005e+08;1.00717e+08;1.82384e+08;6.59109e+07;-2.02674e+07;-1.65188e+07;-1.10375e+07;-4.00888e+06;-2.64486e+08;1.52734e+08;-2.09303e+08;-5.30795e+07;-8.50055e+08;4.01533e+07;2.3614e+08;-8.1561e+08
38;0.377318;-0.0561727;-0.374834;-1.17814e-08;4.51703e-09;2.89498e-09;-0.00108952;0.000503583;0.000243467;38.9835;-3.5723e+08;1.29394;7.04014e+08;1.99876e+09;0;0;1e+30;-0.0840059;428.496;1.33547e+09;109689;2.12673;3523.77;0.00525244;2.61296e-05;-4.15025e+07;-3.48113e+08;-6.82075e+08;1.09943e+08;2.14688e+08;6.62396e+07;2.06412e+07;-3.05081e+08;-7.8725e+08;0.224375;0.494755;0.0746849;-0.35895;0.284265;0.0502458;-0.539346;-0.102325;0.046683;-0.386952;0.256263;0.0502458;-0.539346;-0.102325;0.36447;-0.0639925;-0.123095;0.337033;0.0366472;0.0360754;-0.00180207;0.00619147;-0.485123;0.00562177;-0.455994;-0.165476;-0.0840059;-0.102923;-4.15025e+07;-3.48113e+08;-6.82075e+08;1.09943e+08;2.14688e+08;6.62396e+07;2.06412e+07;1.85722e+07;7.97499e+06;4.18711e+06;-3.05081e+08;1.33045e+08;-2.47969e+08;-1.17835e+08;-7.8725e+08;1.23189e+07;3.43233e+08;-7.0838e+08
39;0.377332;-0.0501477;-0.38389;-1.1696e-08;4.07996e-09;3.53963e-09;-0.00109045;0.000460914;0.000307441;38.9325;-3.926e+08;1.23339;6.30173e+08;2.00177e+09;0;0;1e+30;-0.0874179;428.496;1.33547e+09;109689;2.12673;3526.09;0.00523863;1.64618e-05;-8.27983e+07;-4.94134e+08;-6.00868e+08;8.89183e+07;2.08773e+08;7.77744e+07;-3.57837e+07;-3.78956e+08;-7.63061e+08;0.200839;0.501557;0.0529669;-0.234651;0.181684;0.12707;-0.727235;-0.167065;0.0238276;-0.26379;0.152545;0.12707;-0.727235;-0.167065;0.392772;-0.106742;-0.190982;0.326194;-0.00522776;-0.00502904;0.000591523;-0.00129935;-0.474963;0.0127688;-0.41154;-0.236773;-0.0874179;-0.106124;-8.27983e+07;-4.94134e+08;-6.00868e+08;8.89183e+07;2.08773e+08;7.77744e+07;-3.57838e+07;-3.32448e+07;-1.02601e+07;-8.36623e+06;-3.78956e+08;1.40142e+08;-2.79627e+08;-2.13955e+08;-7.63061e+08;8.11585e+06;4.66224e+08;-6.04012e+08
40;0.378414;-0.0420439;-0.393394;-1.16731e-08;3.48909e-09;4.21597e-09;-0.00109905;0.000403808;0.000376863;38.852;-4.33163e+08;1.24358;6.89513e+08;2.01555e+09;0;0;1e+30;-0.0860065;428.495;1.33547e+09;109684;2.12661;3527.85;0.00521676;7.16728e-06;-1.32505e+08;-6.09361e+08;-5.57622e+08;6.65023e+07;2.75074e+08;9.96103e+07;-7.23746e+07;-3.66879e+08;-8.60234e+08;0.219748;0.483103;0.0532604;-0.172789;0.119528;0.0669309;-0.771248;-0.0830765;0.0245915;-0.201457;0.0908594;0.0669309;-0.771248;-0.0830765;0.365398;-0.0563553;-0.205336;0.296946;0.0163195;0.0161237;-0.00132201;0.00214584;-0.467724;0.00376907;-0.385028;-0.265528;-0.0860065;-0.10447;-1.32505e+08;-6.09361e+08;-5.57622e+08;6.65023e+07;2.75074e+08;9.96103e+07;-7.23746e+07;-6.46087e+07;-2.08497e+07;-2.50818e+07;-3.66879e+08;1.65072e+08;-2.24959e+08;-2.38212e+08;-8.60234e+08;-2.18916e+07;-6.32746e+08;5.82371e+08
41;0.37943;-0.0322136;-0.40202;-1.16447e-08;2.78133e-09;4.82705e-09;-0.00110478;0.00033332;0.000436701;38.8275;-3.60379e+08;1.25385;7.45681e+08;2.01953e+09;0;0;1e+30;-0.0839019;428.495;1.33547e+09;109685;2.12664;3528.36;0.0052102;3.9598e-06;-4.41231e+07;-6.10743e+08;-4.26271e+08;4.74222e+07;3.06299e+08;7.58814e+07;-3.3278e+06;-2.39351e+08;-8.38459e+08;0.237648;0.489611;0.0522812;-0.084212;0.0319307;0.0337499;-0.833353;-0.0430251;0.024314;-0.112179;0.00396341;0.0337499;-0.833353;-0.0430251;0.368761;-0.0291422;-0.241295;0.27733;0.0221532;0.0220838;-0.00119604;0.00127996;-0.474816;-0.001328;-0.358139;-0.311744;-0.0839019;-0.102799;-4.41232e+07;-6.10743e+08;-4.26271e+08;4.74223e+07;3.06299e+08;7.58815e+07;-3.32774e+06;-3.02691e+06;-803658;-1.12508e+06;-2.39351e+08;9.94228e+07;-1.30834e+08;-1.74031e+08;-8.38459e+08;-7.72385e+06;-6.72277e+08;5.00995e+08
42;0.378624;-0.0248403;-0.406562;-1.15343e-08;2.25731e-09;5.1347e-09;-0.00110051;0.00028014;0.000469821;38.8302;-3.90852e+08;1.31551;7.33779e+08;2.0197e+09;0;0;1e+30;-0.0841267;428.495;1.33547e+09;109765;2.13065;3528.92;0.00521093;4.17939e-06;-8.88511e+07;-7.26242e+08;-3.57463e+08;7.35697e+07;2.64457e+08;4.1528e+07;-5.55973e+07;-2.49966e+08;-8.66993e+08;0.233855;0.526134;0.0520272;0.0639965;-0.116024;0.0102924;-0.887905;-0.0379628;0.023985;0.0359542;-0.144066;0.0102924;-0.887905;-0.0379628;0.399611;0.0170114;0.308954;-0.252878;0.0235497;0.0235229;-0.00109711;0.000242018;-0.507287;-0.0109245;-0.320873;-0.392762;-0.0841267;-0.102882;-8.88513e+07;-7.26241e+08;-3.57463e+08;7.35697e+07;2.64457e+08;4.15279e+07;-5.55974e+07;-5.09618e+07;-1.2765e+07;-1.8194e+07;-2.49966e+08;9.88075e+07;-9.96079e+07;-2.06877e+08;-8.66993e+08;5.16874e+07;-7.69865e+08;3.95364e+08
43;0.377371;-0.017006;-0.41047;-1.13941e-08;1.70622e-09;5.40502e-09;-0.00108993;0.000225524;0.000497089;38.8721;-4.37235e+08;1.39831;7.31461e+08;2.03155e+09;0;0;1e+30;-0.0844418;428.495;1.33547e+09;109692;2.12674;3528.79;0.00522236;1.82981e-06;-1.71564e+08;-8.04462e+08;-3.35678e+08;6.06193e+07;2.47899e+08;7.30847e+07;-1.04149e+08;-2.95337e+08;-9.12218e+08;0.233117;0.612646;0.0483116;0.206681;-0.254993;-0.0138276;-0.950843;-0.0395908;0.0201644;0.178534;-0.28314;-0.0138276;-0.950843;-0.0395908;0.476244;0.00485414;0.403583;-0.252795;0.0208119;0.0207989;-0.000554935;-0.000486568;-0.581497;-0.0197511;-0.308332;-0.492626;-0.0844418;-0.102882;-1.71564e+08;-8.04462e+08;-3.35678e+08;6.06194e+07;2.47899e+08;7.30847e+07;-1.04149e+08;-8.40794e+07;-2.68489e+07;-5.52877e+07;-2.95337e+08;1.73952e+08;-8.74241e+07;-2.22085e+08;-9.12218e+08;3.34902e+07;-8.39001e+08;3.56506e+08
44;0.377373;-0.0120401;-0.412485;-1.13635e-08;1.34594e-09;5.54704e-09;-0.00108969;0.000190456;0.000511558;38.878;-4.04235e+08;1.37887;7.46019e+08;2.02544e+09;0;0;1e+30;-0.0819991;428.495;1.33547e+09;109693;2.12672;3528.75;0.00522398;2.49034e-06;-1.09765e+08;-8.11007e+08;-2.91932e+08;5.04703e+07;2.06009e+08;9.01879e+07;-4.8883e+07;-2.80566e+08;-8.83255e+08;0.237757;0.59021;0.0459133;0.260389;-0.306303;-0.00056783;-0.842709;-0.0861547;0.0185802;0.233056;-0.333636;-0.00056783;-0.842709;-0.0861547;0.458387;0.020891;0.403791;-0.215952;0.0201831;0.0201184;-0.00143616;-0.00073912;-0.560569;-0.0368752;-0.262309;-0.494037;-0.0819991;-0.100636;-1.09765e+08;-8.11007e+08;-2.91932e+08;5.04703e+07;2.06009e+08;9.01879e+07;-4.8883e+07;-4.20132e+07;-9.07566e+06;-2.32823e+07;-2.80566e+08;1.43269e+08;-7.5365e+07;-2.29153e+08;-8.83255e+08;2.09333e+07;-8.34839e+08;2.87654e+08
45;0.377479;-0.00702779;-0.414071;-1.13412e-08;9.88695e-10;5.65894e-09;-0.00109036;0.000155403;0.00052261;38.8736;-3.69641e+08;1.36113;7.33751e+08;2.03583e+09;0;0;1e+30;-0.079544;428.495;1.33547e+09;109689;2.12669;3528.77;0.00522277;1.95288e-06;-9.9492e+07;-8.10797e+08;-1.98633e+08;3.61101e+07;1.51911e+08;8.1617e+07;-3.77455e+07;-2.24385e+08;-8.46792e+08;0.233847;0.579478;0.0475571;0.312032;-0.359589;0.00499679;-0.729854;-0.129656;0.0210425;0.285517;-0.386104;0.00499679;-0.729854;-0.129656;0.447528;0.0299064;0.408193;-0.181014;0.0250952;0.0249094;-0.00255928;-0.00165584;-0.552168;-0.0560076;-0.21925;-0.503668;-0.079544;-0.0983864;-9.9492e+07;-8.10797e+08;-1.98633e+08;3.61101e+07;1.51911e+08;8.1617e+07;-3.77455e+07;-3.09156e+07;-5.55705e+06;-2.09302e+07;-2.24385e+08;1.28635e+08;-3.8642e+07;-1.79745e+08;-8.46792e+08;1.90031e+07;-8.24772e+08;1.90911e+08
46;0.377635;0.00176758;-0.415817;-1.13057e-08;3.53345e-10;5.78271e-09;-0.00109099;9.29826e-05;0.000534528;38.8729;-4.03452e+08;1.31978;7.41094e+08;2.02884e+09;0;0;1e+30;-0.0759939;428.495;1.33547e+09;109688;2.1267;3528.9;0.00522258;4.25615e-06;-1.40533e+08;-8.79458e+08;-1.90364e+08;2.29408e+07;6.67095e+07;8.68313e+07;-7.08416e+07;-2.53369e+08;-8.86145e+08;0.236188;0.591495;0.0447146;0.397392;-0.442106;0.0340748;-0.542302;-0.208784;0.0193833;0.37206;-0.467438;0.0340748;-0.542302;-0.208784;0.456934;0.0486327;0.434456;-0.132934;0.0301253;0.0295537;-0.00446152;-0.00376923;-0.563053;-0.0912423;-0.1532;-0.534072;-0.0759939;-0.0946351;-1.40533e+08;-8.79458e+08;-1.90364e+08;2.29408e+07;6.67095e+07;8.68313e+07;-7.08416e+07;-5.57603e+07;-5.16154e+06;-4.33899e+07;-2.53369e+08;1.562e+08;-1.54684e+07;-1.98892e+08;-8.86145e+08;1.75468e+07;-8.82132e+08;8.23866e+07
47;0.377058;0.00887888;-0.41604;-1.124e-08;-1.52142e-10;5.79959e-09;-0.00108675;4.28141e-05;0.000536188;38.893;-3.95327e+08;1.32242;7.39603e+08;2.0249e+09;0;0;1e+30;-0.079296;428.495;1.33547e+09;109692;2.12674;3527.99;0.00522804;1.68791e-06;-9.59176e+07;-8.72123e+08;-2.1794e+08;2.17711e+07;-2.60913e+07;8.3425e+07;-5.35035e+07;-2.58496e+08;-8.73981e+08;0.235713;0.506886;0.0346572;0.41033;-0.444987;-0.00832282;-0.146983;-0.118136;0.00822523;0.383898;-0.471419;-0.00832282;-0.146983;-0.118136;0.390169;0.00090215;0.388751;-0.0332215;0.0153336;0.0152241;-0.000190747;-0.00181866;-0.484798;-0.0578048;-0.0408513;-0.479603;-0.079296;-0.0979858;-9.59176e+07;-8.72123e+08;-2.1794e+08;2.17712e+07;-2.60913e+07;8.3425e+07;-5.35035e+07;-4.7744e+07;-500258;-2.4143e+07;-2.58496e+08;1.16364e+08;1.39253e+07;-2.30404e+08;-8.73981e+08;2.85288e+07;-8.72673e+08;-3.83349e+07
48;0.376087;0.0161079;-0.415281;-1.11514e-08;-6.69448e-10;5.74449e-09;-0.0010792;-8.32134e-06;0.000530256;38.9258;-4.04898e+08;1.32812;7.40736e+08;2.02887e+09;0;0;1e+30;-0.082703;428.495;1.33547e+09;109695;2.12675;3527.33;0.00523695;1.54004e-06;-1.23298e+08;-8.81226e+08;-2.1017e+08;1.45014e+07;-5.63728e+07;8.63449e+07;-6.97058e+07;-2.58438e+08;-8.86551e+08;0.236076;0.525731;0.0243956;0.423078;-0.447473;-0.0563191;0.25657;-0.023085;-0.00317202;0.39551;-0.475041;-0.0563191;0.25657;-0.023085;0.416099;-0.0292278;0.410783;0.0595132;-0.00513872;-0.00512544;-0.000368354;2.53377e-05;-0.493664;-0.00746427;0.0702535;-0.488582;-0.082703;-0.101336;-1.23298e+08;-8.81226e+08;-2.1017e+08;1.45015e+07;-5.63728e+07;8.63449e+07;-6.97058e+07;-5.90976e+07;1.50958e+06;-3.69337e+07;-2.58438e+08;1.36847e+08;2.2922e+07;-2.18032e+08;-8.86551e+08;2.54655e+07;-8.82848e+08;-7.68317e+07
49;0.376587;0.0224081;-0.414607;-1.11625e-08;-1.1271e-09;5.69924e-09;-0.00108238;-5.27129e-05;0.0005253;38.9214;-3.83407e+08;1.34699;7.31815e+08;2.03163e+09;0;0;1e+30;-0.0829059;428.495;1.33547e+09;109694;2.12676;3526.51;0.0052357;1.10845e-06;-1.39578e+08;-8.47246e+08;-1.63397e+08;-1.85039e+07;-9.36782e+07;8.88704e+07;-5.44423e+07;-2.35873e+08;-8.59906e+08;0.233232;0.538446;0.0308276;0.432081;-0.462909;0.0565786;0.18059;-0.173494;0.00319229;0.404446;-0.490544;0.0565786;0.18059;-0.173494;0.414412;0.0200802;0.412066;0.0391904;0.0175901;0.0173141;-0.000553258;-0.00305413;-0.514908;-0.0873645;0.0522621;-0.504744;-0.0829059;-0.101667;-1.39578e+08;-8.47246e+08;-1.63397e+08;-1.8504e+07;-9.36782e+07;8.88704e+07;-5.44423e+07;-3.96734e+07;5.28677e+06;-3.69057e+07;-2.35873e+08;1.61513e+08;2.12492e+07;-1.70582e+08;-8.59906e+08;-7.87568e+06;-8.52329e+08;-1.13631e+08
50;0.37726;0.0284579;-0.412947;-1.11888e-08;-1.55904e-09;5.58897e-09;-0.00108683;-9.51584e-05;0.000513373;38.9163;-2.93556e+08;1.31184;7.19176e+08;2.03326e+09;0;0;1e+30;-0.0801211;428.496;1.33547e+09;109691;2.12667;3526.19;0.00523429;6.41335e-07;-6.34767e+07;-7.49614e+08;-6.75767e+07;-1.21075e+07;-1.17963e+08;4.84433e+07;-5.20789e+06;-1.05997e+08;-7.69462e+08;0.229204;0.503218;0.106916;0.366488;-0.473404;0.0444973;0.0194169;-0.132722;0.0802092;0.339781;-0.500111;0.0444973;0.0194169;-0.132722;0.341694;0.0285458;0.340495;0.00167658;0.0859621;0.0851123;-0.00708745;-0.00975466;-0.507777;-0.0572131;0.00728061;-0.504491;-0.0801211;-0.0994164;-6.34767e+07;-7.49614e+08;-6.75767e+07;-1.21075e+07;-1.17963e+08;4.84433e+07;-5.20792e+06;-3.38347e+06;673279;-3.90145e+06;-1.05997e+08;-8.05782e+07;-1.09458e+07;6.79912e+07;-7.69462e+08;-4.28312e+06;-7.58856e+08;-1.27243e+08
51;0.37663;0.034195;-0.412087;-1.11362e-08;-1.96253e-09;5.52527e-09;-0.00108249;-0.00013493;0.000507361;38.9345;-4.11066e+08;1.30186;7.27492e+08;2.02568e+09;0;0;1e+30;-0.0846174;428.496;1.33547e+09;109691;2.1267;3525.19;0.0052392;1.84414e-06;-1.57062e+08;-8.40734e+08;-2.35402e+08;-2.84995e+06;-1.71094e+08;8.44909e+07;-8.93587e+07;-2.57606e+08;-8.86234e+08;0.231855;0.479834;0.0518028;0.362577;-0.41438;-0.115981;0.250546;-0.0527597;0.023597;0.334371;-0.442586;-0.115981;0.250546;-0.0527597;0.365115;-0.0646547;0.354773;0.0571363;0.0131557;0.0129394;0.00237366;-9.65134e-05;-0.462888;-0.0163693;0.0706446;-0.457172;-0.0846174;-0.103213;-1.57062e+08;-8.40734e+08;-2.35402e+08;-2.84994e+06;-1.71094e+08;8.44908e+07;-8.93587e+07;-6.92245e+07;1.27953e+07;-5.50385e+07;-2.57605e+08;1.62759e+08;5.54832e+07;-1.91811e+08;-8.86234e+08;2.30783e+07;-8.5608e+08;-2.28046e+08
52;0.376332;0.0401003;-0.410473;-1.11026e-08;-2.38986e-09;5.40772e-09;-0.00108021;-0.000175296;0.000493982;38.9576;-3.55493e+08;1.30313;7.40647e+08;2.01506e+09;0;0;1e+30;-0.0868923;428.496;1.33547e+09;109692;2.12674;3524.54;0.00524546;2.62251e-06;-4.78153e+07;-7.65689e+08;-2.52976e+08;1.90111e+06;-2.04269e+08;6.63724e+07;-2.28791e+07;-2.05765e+08;-8.37836e+08;0.236049;0.509044;-0.0157066;0.363907;-0.348201;-0.119697;0.496281;0.0944371;-0.0446707;0.334943;-0.377165;-0.119697;0.496281;0.0944371;0.416916;-0.0390063;0.396849;0.121691;-0.0392128;-0.0386008;-0.00174694;-0.00667599;-0.464596;0.0692489;0.140892;-0.437268;-0.0868923;-0.105819;-4.78153e+07;-7.65689e+08;-2.52976e+08;1.90114e+06;-2.04269e+08;6.63723e+07;-2.28792e+07;-2.13011e+07;2.16326e+06;-8.0648e+06;-2.05765e+08;7.48376e+07;6.59147e+07;-1.79983e+08;-8.37836e+08;2.53143e+07;-7.89721e+08;-2.78692e+08
53;0.376655;0.0478125;-0.406707;-1.11175e-08;-2.95104e-09;5.14611e-09;-0.00108052;-0.00023038;0.000468019;38.9526;-2.75009e+08;1.29147;7.56859e+08;2.01478e+09;0;0;1e+30;-0.0876562;428.496;1.33547e+09;109691;2.12672;3522.11;0.00524398;1.21839e-06;4.31131e+07;-6.58391e+08;-2.0975e+08;-3.06098e+06;-2.43897e+08;7.23135e+07;7.02418e+07;-1.28971e+08;-7.66298e+08;0.241216;0.53742;0.00155152;0.322246;-0.323797;-0.04534;0.646987;0.16862;-0.0276672;0.293027;-0.353016;-0.04534;0.646987;0.16862;0.427449;0.0108531;0.39433;0.164618;-0.0121841;-0.0119828;0.00112246;-0.00189876;-0.502921;0.0901453;0.188493;-0.457465;-0.0876562;-0.107062;4.3113e+07;-6.58391e+08;-2.0975e+08;-3.06096e+06;-2.43897e+08;7.23134e+07;7.02417e+07;6.54132e+07;-8.37053e+06;2.41857e+07;-1.28971e+08;4.68022e+07;5.00621e+07;-1.09256e+08;-7.66298e+08;2.506e+07;-7.00284e+08;-3.10142e+08
54;0.376147;0.0514112;-0.404648;-1.10847e-08;-3.2113e-09;4.99992e-09;-0.00107919;-0.00025924;0.000454198;38.9552;-3.42094e+08;1.33625;7.5773e+08;2.0257e+09;0;0;1e+30;-0.0886859;428.496;1.33547e+09;109693;2.12675;3521.84;0.0052447;1.18788e-06;-5.67539e+07;-6.77459e+08;-2.92069e+08;-3.24415e+07;-2.948e+08;7.23139e+07;-6.97337e+06;-1.82309e+08;-8.37e+08;0.241493;0.578098;0.00380883;0.308796;-0.312605;-0.0216685;0.763475;0.181785;-0.0257531;0.279234;-0.342167;-0.0216685;0.763475;0.181785;0.46251;0.0280884;0.415865;0.200458;-0.0128308;-0.0126264;0.00162475;-0.00160144;-0.538365;0.0899648;0.225536;-0.480497;-0.0886859;-0.107693;-5.67539e+07;-6.77459e+08;-2.92069e+08;-3.24415e+07;-2.948e+08;7.23138e+07;-6.97342e+06;-5.90192e+06;1.73057e+06;-3.28649e+06;-1.82309e+08;9.7094e+07;7.41906e+07;-1.35296e+08;-8.37e+08;6.37726e+06;-7.35801e+08;-3.98905e+08
55;0.0728716;-0.0620474;-0.338979;9.94028e-09;6.24726e-09;-1.13942e-09;0.00108131;0.000553893;-1.74536e-05;39.0734;-3.33836e+08;1.45115;7.30103e+08;2.04301e+09;0;0;1e+30;-0.108844;428.496;1.33547e+09;109694;2.12674;3515.95;0.00527655;3.78297e-06;-4.62595e+07;-1.4691e+08;-8.08337e+08;-7.39399e+07;-2.86263e+07;534050;-6.90275e+06;-1.85021e+08;-8.09583e+08;0.232694;0.399802;0.0833844;-0.342316;0.258932;0.030636;0.308226;-0.0350193;0.0471031;-0.378597;0.22265;0.030636;0.308226;-0.0350193;0.260697;-0.0163959;0.0606031;0.253025;0.0470359;0.0469032;0.00256593;0.00242473;-0.416577;0.0170644;-0.404527;0.0979959;-0.108844;-0.1279;-4.62595e+07;-1.4691e+08;-8.08337e+08;-7.39399e+07;-2.86263e+07;533969;-6.90278e+06;-6.09279e+06;3.2422e+06;-119867;-1.85021e+08;-8.69603e+07;-1.63143e+08;7.41795e+06;-8.09583e+08;-2.84941e+06;-3.5257e+07;-8.0881e+08
56;0.0744126;-0.0607247;-0.331466;9.82376e-09;6.1554e-09;-1.67484e-09;0.00106743;0.000538042;-7.25714e-05;39.1658;-4.27268e+08;1.29786;7.44352e+08;2.02796e+09;0;0;1e+30;-0.108814;428.496;1.33547e+09;109700;2.1268;3515.26;0.00530162;4.63919e-06;-1.67268e+08;-2.52815e+08;-8.6172e+08;-1.11143e+08;-1.66071e+08;3.69235e+07;-7.00185e+07;-3.0762e+08;-9.04165e+08;0.237239;0.340725;0.0204163;-0.205952;0.185536;0.0894683;0.424989;-0.0717505;-0.0158549;-0.242223;0.149265;0.0894683;0.424989;-0.0717505;0.243305;-0.0142492;0.09628;0.22299;-0.00739397;-0.00727823;-0.00129958;9.60328e-05;-0.344725;0.0573022;-0.310734;0.137827;-0.108814;-0.127314;-1.67268e+08;-2.52815e+08;-8.6172e+08;-1.11143e+08;-1.66071e+08;3.69235e+07;-7.00185e+07;-5.38296e+07;4.32527e+07;-1.15834e+07;-3.0762e+08;-1.96691e+08;-2.2985e+08;5.5782e+07;-9.04165e+08;1.04825e+07;-2.21688e+08;-8.76504e+08
57;0.0717976;-0.056803;-0.31913;9.98554e-09;5.88735e-09;-2.57381e-09;0.00108525;0.000509641;-0.000159532;39.1638;-4.372e+08;1.26845;7.53455e+08;2.01492e+09;0;0;1e+30;-0.112968;428.496;1.33548e+09;109694;2.12678;3515.45;0.00530108;1.08405e-05;-1.54208e+08;-3.47192e+08;-8.10199e+08;-1.10778e+08;-2.49196e+08;3.4696e+07;-7.33818e+07;-3.19177e+08;-9.1904e+08;0.240141;0.347393;0.0121028;-0.14568;0.133577;-0.0884967;0.524766;0.0202898;-0.0255531;-0.183336;0.0959213;-0.0884967;0.524766;0.0202898;0.254232;-0.0129276;0.131535;0.217176;-0.0204657;-0.0202563;0.00180224;-0.00229732;-0.346734;-0.0462207;-0.295144;0.176005;-0.112968;-0.131409;-1.54208e+08;-3.47192e+08;-8.10199e+08;-1.10778e+08;-2.49196e+08;3.46959e+07;-7.33819e+07;-6.01485e+07;3.88799e+07;-1.59817e+07;-3.19177e+08;-1.82761e+08;-2.38328e+08;1.08038e+08;-9.1904e+08;-1.53671e+07;-3.69596e+08;-8.41307e+08
58;0.0734834;-0.0518606;-0.308043;9.86725e-09;5.54224e-09;-3.37267e-09;0.00107268;0.000475101;-0.000237692;39.2354;-4.15157e+08;1.19455;7.66859e+08;2.00863e+09;0;0;1e+30;-0.111493;428.497;1.33548e+09;109694;2.12679;3510.5;0.00532028;6.27919e-06;-1.28331e+08;-3.80176e+08;-7.36964e+08;-1.21696e+08;-2.90825e+08;5.57568e+07;-3.21125e+07;-3.13454e+08;-8.99906e+08;0.244416;0.365056;0.100595;-0.0806455;-0.0199497;-0.0166333;0.604545;0.001645;0.063431;-0.11781;-0.0571139;-0.0166333;0.604545;0.001645;0.216492;-0.00702841;0.145217;0.16041;0.0633688;0.0633285;0.000686097;0.00215364;-0.391354;-0.00578199;-0.290222;0.262479;-0.111493;-0.130065;-1.28331e+08;-3.80176e+08;-7.36964e+08;-1.21696e+08;-2.90825e+08;5.57568e+07;-3.21125e+07;-2.60574e+07;1.65325e+07;-8.88264e+06;-3.13454e+08;-1.83137e+08;-2.20316e+08;1.2718e+08;-8.99906e+08;-1.30192e+07;-4.41713e+08;-7.83933e+08
59;0.0733944;-0.0478085;-0.301999;9.87457e-09;5.25775e-09;-3.82151e-09;0.00107281;0.000446397;-0.000280598;39.2494;-3.83197e+08;1.12248;7.40294e+08;1.99433e+09;0;0;1e+30;-0.111609;428.497;1.33548e+09;109693;2.12679;3511.23;0.00532399;6.86292e-06;-1.00624e+08;-4.53094e+08;-5.95874e+08;-1.13424e+08;-3.13779e+08;7.98346e+07;-4.04252e+06;-2.9917e+08;-8.46379e+08;0.23595;0.340766;0.0753364;-0.0400099;-0.0353266;-0.0246104;0.574429;0.0272556;0.0381336;-0.0772127;-0.0725294;-0.0246104;0.574429;0.0272556;0.212359;0.00123516;0.149516;0.150796;0.0389658;0.0389245;-0.00142296;0.00109206;-0.362933;-0.016573;-0.257387;0.255338;-0.111609;-0.130371;-1.00625e+08;-4.53094e+08;-5.95874e+08;-1.13424e+08;-3.13779e+08;7.98346e+07;-4.0425e+06;-3.31632e+06;1.82716e+06;-1.41609e+06;-2.9917e+08;-1.71042e+08;-1.90211e+08;1.55136e+08;-8.46379e+08;-9.8696e+06;-5.29559e+08;-6.60172e+08
60;0.0738954;-0.0367757;-0.289749;9.86008e-09;4.45427e-09;-4.71526e-09;0.00106829;0.000367987;-0.0003665;39.333;-4.98787e+08;1.02953;7.69898e+08;1.98895e+09;0;0;1e+30;-0.112812;428.497;1.33548e+09;109694;2.12681;3504.39;0.00534656;1.03217e-05;-2.13976e+08;-6.81729e+08;-6.00657e+08;-1.33191e+08;-3.16371e+08;1.31413e+08;-7.36467e+07;-4.62315e+08;-9.60401e+08;0.24539;0.291922;0.0475022;0.0707991;-0.118301;-0.0284984;0.451676;0.0911231;0.00989804;0.033195;-0.155905;-0.0284984;0.451676;0.0911231;0.184527;0.0144465;0.1524;0.103033;0.015364;0.0151634;-0.00220174;0.00113057;-0.312704;0.0440254;0.170521;-0.258395;-0.112812;-0.130887;-2.13976e+08;-6.81729e+08;-6.00657e+08;-1.33191e+08;-3.16371e+08;1.31413e+08;-7.36466e+07;-5.88902e+07;2.98675e+07;-3.26144e+07;-4.62315e+08;2.77476e+08;2.38741e+08;-2.82392e+08;-9.60401e+08;-1.82769e+07;-7.24359e+08;-6.30349e+08
61;0.073834;-0.020999;-0.278147;9.90384e-09;3.30778e-09;-5.57243e-09;0.00106821;0.000256938;-0.000447353;39.3813;-4.7863e+08;1.10474;7.70173e+08;1.98591e+09;0;0;1e+30;-0.112552;428.497;1.33548e+09;109693;2.12683;3499.7;0.00535947;1.28343e-05;-1.67716e+08;-7.83323e+08;-4.84851e+08;-1.10589e+08;-2.63109e+08;1.46607e+08;-4.93713e+07;-4.49282e+08;-9.37236e+08;0.24548;0.301064;0.0561203;0.151788;-0.207909;-0.048912;0.337879;0.128582;0.018603;0.114271;-0.245426;-0.048912;0.337879;0.128582;0.181179;0.0011056;0.168391;0.066851;0.0323228;0.0316972;-0.00251386;0.00580796;-0.326054;0.0638089;0.11762;-0.29733;-0.112552;-0.130747;-1.67716e+08;-7.83323e+08;-4.84851e+08;-1.10589e+08;-2.63109e+08;1.46608e+08;-4.93711e+07;-4.14601e+07;1.43611e+07;-2.26346e+07;-4.49282e+08;2.43554e+08;1.80536e+08;-3.31576e+08;-9.37236e+08;-2.85399e+07;-8.13788e+08;-4.64053e+08
62;0.0731642;-0.0113773;-0.273623;9.98118e-09;2.60228e-09;-5.91372e-09;0.00107271;0.000189315;-0.00047924;39.3795;-5.05349e+08;1.16614;7.64387e+08;2.003e+09;0;0;1e+30;-0.112482;428.497;1.33548e+09;109695;2.12677;3497.47;0.00535898;3.45568e-06;-2.08663e+08;-9.53335e+08;-3.54047e+08;-3.87833e+07;-1.20681e+08;1.51299e+08;-1.02172e+08;-4.37032e+08;-9.76843e+08;0.243636;0.328082;0.0889222;0.192431;-0.281353;-0.0504966;0.227633;0.14267;0.0514283;0.154937;-0.318847;-0.0504966;0.227633;0.14267;0.181506;-0.0133102;0.176909;0.0383443;0.0645668;0.0633309;0.00207732;0.0123995;-0.358554;0.0646766;0.0793466;-0.343631;-0.112482;-0.130517;-2.08663e+08;-9.53335e+08;-3.54047e+08;-3.87834e+07;-1.20681e+08;1.51299e+08;-1.02171e+08;-8.43915e+07;1.18369e+07;-5.63646e+07;-4.37032e+08;2.46292e+08;6.4526e+07;-3.55209e+08;-9.76842e+08;-1.2417e+07;-9.59485e+08;-1.82906e+08
63;0.0754212;0.00498927;-0.272124;9.8973e-09;1.38185e-09;-6.03996e-09;0.00105618;7.41486e-05;-0.000489098;39.4728;-5.29498e+08;1.17618;7.64885e+08;1.9978e+09;0;0;1e+30;-0.113214;428.497;1.33548e+09;109698;2.12683;3493.19;0.00538412;5.78745e-06;-2.24734e+08;-1.00685e+09;-3.56913e+08;-2.30379e+07;-4.71439e+07;1.30383e+08;-1.4237e+08;-4.35632e+08;-1.01049e+09;0.243799;0.277327;0.0675745;0.172082;-0.239656;-0.0938269;-0.193374;0.0361621;0.0298364;0.134343;-0.277394;-0.0938269;-0.193374;0.0361621;0.173181;-0.0567978;0.159478;-0.0365011;0.0127437;0.0120353;0.00414207;-0.000630302;-0.299139;0.00686802;-0.0643965;-0.292045;-0.113214;-0.131106;-2.24734e+08;-1.00685e+09;-3.56913e+08;-2.30379e+07;-4.7144e+07;1.30383e+08;-1.4237e+08;-1.20786e+08;7.30955e+06;-7.50102e+07;-4.35632e+08;2.30477e+08;2.11645e+07;-3.69064e+08;-1.01049e+09;-1.80872e+07;-1.00796e+09;-6.90983e+07
64;0.0741171;0.0153665;-0.27433;1.00397e-08;6.31256e-10;-5.90001e-09;0.00106635;8.48638e-07;-0.000472752;39.4453;-4.45163e+08;1.09185;7.47552e+08;1.97668e+09;0;0;1e+30;-0.111898;428.497;1.33548e+09;109694;2.12677;3492.15;0.00537654;5.00597e-06;-1.50896e+08;-8.98414e+08;-2.86177e+08;-2.75855e+07;4.21663e+06;1.63848e+08;-4.07808e+07;-3.95094e+08;-8.99613e+08;0.238273;0.23734;0.116772;0.112083;-0.228855;-0.0486456;-0.00572007;0.0971903;0.0794721;0.0747837;-0.266154;-0.0486456;-0.00572007;0.0971903;0.105619;0.0819477;-0.0656814;0.0112168;0.0553405;0.0340832;0.043338;0.00476628;-0.272857;0.0373071;0.000386499;-0.270294;-0.111898;-0.130292;-1.50896e+08;-8.98414e+08;-2.86177e+08;-2.75855e+07;4.21662e+06;1.63849e+08;-4.07807e+07;-3.39136e+07;979574;-2.26269e+07;-3.95094e+08;2.18831e+08;-1.47466e+07;-3.28626e+08;-8.99613e+08;-3.66039e+07;-8.98726e+08;1.59546e+07
65;0.0756103;0.0250061;-0.273337;9.97282e-09;-7.0862e-11;-5.97074e-09;0.00105535;-6.70717e-05;-0.000480505;39.452;-4.08961e+08;0.842253;7.66563e+08;1.95454e+09;0;0;1e+30;-0.108392;428.497;1.33548e+09;109691;2.12676;3493.45;0.00537838;4.66491e-06;-1.11914e+08;-8.77902e+08;-2.37067e+08;-7.83034e+06;1.06512e+07;1.63869e+08;920618;-3.49571e+08;-8.78233e+08;0.244333;0.274105;0.0872611;0.164354;-0.251615;0.0699676;0.145427;0.0590184;0.0511305;0.128223;-0.287745;0.0699676;0.145427;0.0590184;0.155617;0.0554836;0.142839;0.0271191;0.0376268;0.0350651;-0.0136454;0.000130738;-0.301636;0.0200249;0.0486131;-0.297019;-0.108392;-0.127001;-1.11914e+08;-8.77902e+08;-2.37067e+08;-7.83034e+06;1.06512e+07;1.63869e+08;920680;758311;-428.502;522125;-3.49571e+08;1.98179e+08;-8.73995e+06;-2.87834e+08;-8.78233e+08;-1.27889e+07;-8.77958e+08;1.78534e+07
66;0.0766767;0.0381886;-0.274145;9.96096e-09;-1.04798e-09;-5.90645e-09;0.00104912;-0.00016104;-0.000474515;39.5098;-3.75675e+08;0.765359;7.78055e+08;1.94978e+09;0;0;1e+30;-0.107555;428.497;1.33548e+09;109699;2.12687;3496.49;0.00539413;1.00627e-05;-8.29468e+07;-8.26274e+08;-2.17804e+08;1.30294e+07;1.50673e+08;1.48633e+08;2.34521e+07;-2.88336e+08;-8.62141e+08;0.247999;0.302067;0.0807555;0.186086;-0.266842;-0.0142613;-0.21983;-0.0222751;0.044904;0.150235;-0.302693;-0.0142613;-0.21983;-0.0222751;0.175651;-0.00599495;0.171121;-0.0391809;0.0451673;0.0451158;0.0011655;-0.00181276;-0.328373;-0.010949;-0.0736136;-0.319828;-0.107555;-0.126363;-8.29468e+07;-8.26274e+08;-2.17804e+08;1.30293e+07;1.50673e+08;1.48633e+08;2.3452e+07;1.90557e+07;2.66951e+06;1.3407e+07;-2.88336e+08;1.67873e+08;-5.9449e+07;-2.26764e+08;-8.62141e+08;-2.44392e+07;-8.3789e+08;2.01571e+08
67;0.0763282;0.055654;-0.280553;1.00807e-08;-2.32667e-09;-5.4245e-09;0.0010466;-0.00028303;-0.000431062;39.4419;-3.42692e+08;1.13831;7.23389e+08;1.95887e+09;0;0;1e+30;-0.106706;428.497;1.33548e+09;109695;2.12684;3501.45;0.00537568;2.61449e-05;-3.61882e+07;-6.79306e+08;-3.12581e+08;3.76993e+07;2.36e+08;1.15035e+08;2.80134e+07;-2.60905e+08;-7.95184e+08;0.230571;0.50794;0.152069;0.105577;-0.257646;-0.0436567;-0.749881;-0.0920603;0.1165;0.0700086;-0.293215;-0.0436567;-0.749881;-0.0920603;0.305196;0.0097768;0.258153;-0.1625;0.120256;0.11983;-0.00823491;-0.00587269;-0.532159;-0.041385;-0.281509;-0.449703;-0.106706;-0.125711;-3.61883e+07;-6.79306e+08;-3.12581e+08;3.76991e+07;2.36e+08;1.15035e+08;2.80131e+07;2.47206e+07;5.33728e+06;1.20475e+07;-2.60904e+08;1.22581e+08;-1.04673e+08;-2.05155e+08;-7.95184e+08;-1.80694e+07;-7.12453e+08;3.52706e+08
68;0.0754406;0.0672573;-0.287955;1.02096e-08;-3.17486e-09;-4.88684e-09;0.00104829;-0.000357758;-0.000369941;39.3336;-3.86094e+08;1.23276;7.44194e+08;2.00302e+09;0;0;1e+30;-0.108239;428.497;1.33548e+09;109691;2.12683;3499.8;0.00534625;7.69167e-06;-1.43051e+08;-5.75638e+08;-4.39593e+08;6.45465e+07;3.40228e+08;1.25529e+08;-1.30167e+07;-2.89404e+08;-8.55861e+08;0.237198;0.50435;0.154783;-0.0548456;-0.0999379;-0.0970244;-0.82121;-0.0734793;0.118704;-0.0909251;-0.136017;-0.0970244;-0.82121;-0.0734793;0.29832;-0.0169528;0.217148;-0.203849;0.12369;0.122964;-0.00270909;-0.0131119;-0.530249;-0.0488509;-0.363396;-0.383041;-0.108239;-0.126984;-1.43051e+08;-5.75638e+08;-4.39593e+08;6.45464e+07;3.40228e+08;1.25529e+08;-1.30167e+07;-9.50627e+06;-5.37439e+06;-7.08393e+06;-2.89404e+08;1.97299e+08;-1.42086e+08;-1.56968e+08;-8.55861e+08;-3.7015e+07;-6.56554e+08;5.47782e+08
69;0.0757066;0.0777238;-0.298228;1.02612e-08;-3.93117e-09;-4.12823e-09;0.00105085;-0.000434853;-0.000297848;39.3163;-3.4916e+08;1.34652;7.46263e+08;2.01591e+09;0;0;1e+30;-0.10917;428.497;1.33548e+09;109691;2.1268;3499.46;0.00534175;5.19642e-06;-8.10103e+07;-4.27382e+08;-5.39088e+08;6.85208e+07;3.38063e+08;9.80107e+07;9.32418e+06;-2.2965e+08;-8.27154e+08;0.237856;0.606626;0.140224;-0.195043;0.0548198;-0.151209;-0.976753;-0.075198;0.103834;-0.231433;0.0184299;-0.151209;-0.976753;-0.075198;0.398565;0.0230306;-0.245504;0.313132;0.112338;0.111421;-0.00608494;-0.0129657;-0.620073;-0.0704707;-0.487319;-0.376889;-0.10917;-0.128135;-8.10104e+07;-4.27382e+08;-5.39088e+08;6.85208e+07;3.38064e+08;9.80107e+07;9.32416e+06;7.37942e+06;4.16755e+06;3.88787e+06;-2.2965e+08;1.40047e+08;-1.43305e+08;-1.12204e+08;-8.27154e+08;3.45871e+07;5.30173e+08;-6.33959e+08
70;0.0768737;0.0879687;-0.31368;1.02732e-08;-4.67421e-09;-2.98549e-09;0.00104064;-0.000499995;-0.000191426;39.3204;-3.34752e+08;1.5263;7.47927e+08;2.01227e+09;0;0;1e+30;-0.103771;428.497;1.33548e+09;109691;2.12677;3498.17;0.00534289;6.30393e-06;-7.54427e+06;-3.60261e+08;-6.36451e+08;5.8871e+07;2.87696e+08;2.93477e+07;1.46104e+07;-2.01335e+08;-8.17531e+08;0.238387;0.656147;0.105155;-0.430106;0.324951;-0.20284;-0.767362;-0.241488;0.0705645;-0.464696;0.290361;-0.20284;-0.767362;-0.241488;0.464947;-0.0875431;-0.166013;0.425384;0.0840747;0.0809866;-0.0209137;0.00850494;-0.652793;-0.124987;-0.587743;-0.255099;-0.103771;-0.122822;-7.54439e+06;-3.6026e+08;-6.36451e+08;5.8871e+07;2.87696e+08;2.93477e+07;1.46103e+07;1.3842e+07;4.01387e+06;2.39764e+06;-2.01335e+08;6.44085e+07;-1.61088e+08;-1.02166e+08;-8.17531e+08;-6.62903e+06;4.35955e+08;-6.91561e+08
71;0.0770532;0.0901315;-0.3188;1.02905e-08;-4.82935e-09;-2.61178e-09;0.00104244;-0.000526919;-0.000161075;39.3412;-4.01122e+08;1.438;7.5691e+08;2.03752e+09;0;0;1e+30;-0.10419;428.497;1.33548e+09;109694;2.12679;3504.64;0.00534859;8.09325e-07;-1.05564e+08;-2.92978e+08;-8.04824e+08;9.55626e+07;2.25046e+08;-1.34331e+07;-5.58903e+07;-2.55018e+08;-8.92457e+08;0.241251;0.569084;0.090592;-0.44888;0.358288;-0.157786;-0.497753;-0.150904;0.055862;-0.48361;0.323558;-0.157786;-0.497753;-0.150904;0.401881;-0.0603323;-0.102516;0.383874;0.0630658;0.0615979;-0.0118555;0.00651507;-0.569137;-0.0871974;-0.539808;-0.157864;-0.10419;-0.122846;-1.05564e+08;-2.92978e+08;-8.04824e+08;9.55626e+07;2.25046e+08;-1.34331e+07;-5.58903e+07;-4.87844e+07;-2.6348e+07;-7.04223e+06;-2.55018e+08;1.23513e+08;-2.0541e+08;-8.70958e+07;-8.92457e+08;-5.31135e+07;3.2051e+08;-8.31224e+08
72;0.0770296;0.0916458;-0.324113;1.03111e-08;-4.93423e-09;-2.22271e-09;0.00104319;-0.000535963;-0.000118427;39.3259;-3.4122e+08;1.34972;7.51816e+08;2.02602e+09;0;0;1e+30;-0.103858;428.497;1.33548e+09;109697;2.1268;3504.6;0.00534449;1.14707e-06;-6.72427e+07;-1.44473e+08;-8.11943e+08;7.53084e+07;1.21644e+08;-1.62585e+07;-1.78215e+07;-1.71302e+08;-8.34535e+08;0.239626;0.523357;0.0760711;-0.466712;0.390641;-0.112293;-0.230232;-0.0606214;0.0414517;-0.501332;0.356022;-0.112293;-0.230232;-0.0606214;0.372784;-0.0257969;-0.0469275;0.368918;0.0461843;0.0458167;-0.00523208;0.00253823;-0.522827;-0.0549981;-0.515275;-0.0693902;-0.103858;-0.122871;-6.72427e+07;-1.44473e+08;-8.11943e+08;7.53084e+07;1.21644e+08;-1.62586e+07;-1.78215e+07;-1.47426e+07;-9.93836e+06;-1.22053e+06;-1.71302e+08;9.60229e+07;-1.38903e+08;-2.88115e+07;-8.34535e+08;-3.193e+07;1.4815e+08;-8.20659e+08
73;0.0764678;0.0920873;-0.332708;1.0373e-08;-4.9584e-09;-1.60154e-09;0.0010543;-0.000541148;-6.03723e-05;39.241;-3.20788e+08;1.32817;7.39515e+08;2.03311e+09;0;0;1e+30;-0.103651;428.496;1.33548e+09;109699;2.12673;3503.58;0.00532146;5.73457e-07;-6.08011e+07;-1.00585e+08;-8.00978e+08;5.73279e+07;6.73563e+07;-3.3741e+07;-1.98305e+07;-1.33091e+08;-8.09442e+08;0.235701;0.430687;0.0670077;-0.398532;0.331524;-0.082161;-0.00908852;-0.0564698;0.0324572;-0.433083;0.296974;-0.082161;-0.00908852;-0.0564698;0.299954;-0.0314729;-8.54262e-05;0.298299;0.0331409;0.0328293;-0.00292645;0.00346292;-0.436747;-0.0383403;-0.43504;-0.0041698;-0.103651;-0.122785;-6.08011e+07;-1.00585e+08;-8.00978e+08;5.73279e+07;6.73563e+07;-3.37411e+07;-1.98305e+07;-1.60447e+07;-1.165e+07;-311510;-1.33091e+08;7.79051e+07;-1.069e+08;-1.47165e+07;-8.09442e+08;-4.23684e+07;7.98593e+07;-8.04378e+08
74;0.0761782;0.0925565;-0.336301;1.04047e-08;-4.98549e-09;-1.34452e-09;0.00105623;-0.000544489;-3.53054e-05;39.2234;-2.95923e+08;1.4775;7.23213e+08;2.05511e+09;0;0;1e+30;-0.101942;428.496;1.33547e+09;109700;2.1267;3504.1;0.00531671;2.3328e-07;-4.23168e+07;-7.3771e+07;-7.7168e+08;5.60297e+07;2.02248e+07;-2.81251e+07;287518;-1.14573e+08;-7.73483e+08;0.230504;0.450819;0.0752426;-0.416872;0.34163;-0.113168;0.0654567;0.0176513;0.0412621;-0.450853;0.307649;-0.113168;0.0654567;0.0176513;0.309213;0.00748225;0.0127424;0.30886;0.047586;0.0472666;-0.0054263;-0.000921182;-0.458741;-0.0518852;-0.455356;0.0200433;-0.101942;-0.121223;-4.23168e+07;-7.3771e+07;-7.7168e+08;5.60297e+07;2.02248e+07;-2.81251e+07;287516;229772;172787;-3844.46;-1.14573e+08;6.8712e+07;-9.15016e+07;-5.75725e+06;-7.73483e+08;-3.16176e+07;2.48586e+07;-7.72436e+08
75;0.07583;0.0931152;-0.339926;1.0441e-08;-5.01468e-09;-1.0793e-09;0.00105883;-0.000548308;-9.93707e-06;39.2071;-3.35614e+08;1.6202;7.19996e+08;2.06352e+09;0;0;1e+30;-0.100617;428.495;1.33547e+09;109701;2.12664;3504.9;0.00531231;2.04393e-07;-7.48707e+07;-1.22087e+08;-8.09883e+08;5.30137e+07;9.51731e+06;-2.53259e+07;-4.01094e+07;-1.55789e+08;-8.10942e+08;0.229478;0.476487;0.0823743;-0.431966;0.349591;-0.140053;0.147125;0.0931277;0.0488353;-0.465505;0.316052;-0.140053;0.147125;0.0931277;0.328734;0.0474771;0.0258469;0.324259;0.0533715;0.0522922;-0.00805176;-0.00701468;-0.482722;-0.0668449;-0.475686;0.0477045;-0.100617;-0.119662;-7.48708e+07;-1.22087e+08;-8.09883e+08;5.30137e+07;9.51729e+06;-2.53259e+07;-4.01094e+07;-3.37174e+07;-2.1707e+07;840941;-1.55789e+08;8.41932e+07;-1.30978e+08;-5.16566e+06;-8.10942e+08;-2.88467e+07;1.34155e+07;-8.10318e+08
76;0.0752582;0.0931165;-0.34297;1.04871e-08;-5.00779e-09;-8.62103e-10;0.00106309;-0.000548239;1.11451e-05;39.1719;-2.43579e+08;1.61411;6.92348e+08;2.07607e+09;0;0;1e+30;-0.100326;428.495;1.33547e+09;109698;2.12654;3505.17;0.00530276;1.19745e-07;-1.18973e+07;-2.00836e+07;-6.98756e+08;3.92317e+07;-2.91192e+07;-4.45933e+07;2.72724e+07;-5.53356e+07;-7.02674e+08;0.220665;0.425955;0.0840354;-0.348972;0.264937;-0.284708;0.22751;0.115859;0.0505935;-0.382414;0.231495;-0.284708;0.22751;0.115859;0.257776;0.0467012;0.0342485;0.251186;0.0901567;0.0847414;-0.0283878;-0.0118848;-0.448258;-0.129685;-0.421268;0.08155;-0.100326;-0.119917;-1.18973e+07;-2.00836e+07;-6.98756e+08;3.92317e+07;-2.91192e+07;-4.45933e+07;2.72723e+07;2.0338e+07;1.80625e+07;-1.97362e+06;-5.53356e+07;3.6706e+07;-4.14034e+07;-670176;-7.02674e+08;-4.36838e+07;-2.73845e+07;-7.0078e+08
77;0.0742971;0.0925223;-0.34568;1.05549e-08;-4.95827e-09;-6.76013e-10;0.00107011;-0.000544128;3.07489e-05;39.1156;-1.91833e+08;1.74061;6.55926e+08;2.0924e+09;0;0;1e+30;-0.100278;428.496;1.33548e+09;109692;2.1266;3503.74;0.00528746;4.44537e-08;2.76915e+07;2.33145e+07;-6.26504e+08;2.32821e+07;-2.25759e+07;-2.55352e+07;5.06031e+07;2.1186e+06;-6.28219e+08;0.209054;0.542326;0.229543;-0.525482;0.295938;-0.0966835;0.20025;-0.0102023;0.196117;-0.558908;0.262513;-0.0966835;0.20025;-0.0102023;0.276059;-0.038309;0.0347356;0.271172;0.197517;0.195229;-0.00867887;0.0286921;-0.573853;-0.0352577;-0.568733;0.0678706;-0.100278;-0.120178;2.76915e+07;2.33145e+07;-6.26504e+08;2.32821e+07;-2.25759e+07;-2.55352e+07;5.06031e+07;3.73889e+07;3.4004e+07;-2.54377e+06;2.11861e+06;-1.4254e+06;1.56741e+06;1610.18;-6.28219e+08;-2.36845e+07;-2.08941e+07;-6.27425e+08
78;0.0751275;0.0926178;-0.348502;1.05088e-08;-4.96368e-09;-4.72807e-10;0.00106422;-0.000544984;5.08797e-05;39.1263;-2.79653e+08;1.67583;7.3523e+08;2.08716e+09;0;0;1e+30;-0.101168;428.496;1.33548e+09;109694;2.12663;3504.75;0.00529039;1.02272e-07;-1.73343e+07;-5.4795e+07;-7.6683e+08;2.6661e+07;-3.25199e+07;-7.88658e+06;-2.84072e+06;-6.77472e+07;-7.68372e+08;0.23433;0.540706;0.19574;-0.509172;0.313432;-0.0583852;0.285599;0.0222515;0.162017;-0.542894;0.279709;-0.0583852;0.285599;0.0222515;0.304059;0.0131795;0.0500627;0.299619;0.163037;0.162741;-0.00791056;-0.00583678;-0.568264;-0.02382;-0.55983;0.0945885;-0.101168;-0.120546;-1.73343e+07;-5.4795e+07;-7.6683e+08;2.6661e+07;-3.25199e+07;-7.88657e+06;-2.84074e+06;-2.50494e+06;-1.33726e+06;82779.6;-6.77472e+07;3.19468e+07;-5.96929e+07;2.41639e+06;-7.68372e+08;-6.82734e+06;-3.47248e+07;-7.67556e+08
79;0.0756403;0.0924891;-0.351338;1.04835e-08;-4.95156e-09;-2.63486e-10;0.00106066;-0.000543824;7.07147e-05;39.1495;-3.15777e+08;1.60403;7.28465e+08;2.06717e+09;0;0;1e+30;-0.101749;428.496;1.33547e+09;109699;2.1267;3506.35;0.00529677;4.02305e-07;-6.44038e+07;-1.09669e+08;-7.73259e+08;5.41869e+07;-1.25434e+08;-2.71598e+07;-1.61081e+07;-1.3465e+08;-7.96574e+08;0.232175;0.546586;0.162844;-0.493176;0.330331;-0.0184338;0.367862;0.0537419;0.128928;-0.527092;0.296415;-0.0184338;0.367862;0.0537419;0.338464;0.0391266;0.0694825;0.328936;0.126401;0.125525;-0.00563771;-0.0137402;-0.566614;-0.0119164;-0.55397;0.118435;-0.101749;-0.120913;-6.44038e+07;-1.09669e+08;-7.73259e+08;5.41869e+07;-1.25434e+08;-2.71598e+07;-1.61081e+07;-1.24318e+07;-1.00243e+07;2.10662e+06;-1.3465e+08;8.55668e+07;-1.02645e+08;1.65221e+07;-7.96574e+08;-1.85875e+07;-1.41636e+08;-7.8366e+08
80;0.0748745;0.0912724;-0.35669;1.05467e-08;-4.85282e-09;1.19185e-10;0.0010663;-0.000533907;0.000108144;39.092;-3.14409e+08;1.45331;7.31034e+08;2.05643e+09;0;0;1e+30;-0.102459;428.496;1.33548e+09;109694;2.12668;3507.61;0.00528117;3.50294e-07;-6.04928e+07;-1.3576e+08;-7.46975e+08;7.02041e+07;-1.76704e+08;-1.5266e+07;-1.3119e+06;-1.47516e+08;-7.944e+08;0.232991;0.52182;0.122419;-0.441125;0.318706;-0.0631197;0.436572;-0.00219526;0.0882663;-0.475278;0.284553;-0.0631197;0.436572;-0.00219526;0.343131;-0.0124247;0.0888178;0.331204;0.0893976;0.0892341;-0.00334637;0.00424489;-0.534988;-0.0259052;-0.516367;0.137501;-0.102459;-0.12163;-6.04928e+07;-1.3576e+08;-7.46975e+08;7.02041e+07;-1.76704e+08;-1.5266e+07;-1.31193e+06;-1.01224e+06;-807200;212010;-1.47516e+08;9.38393e+07;-1.09802e+08;2.9977e+07;-7.944e+08;3.76892e+06;-2.0622e+08;-7.67157e+08
81;0.0749843;0.0888875;-0.364344;1.0552e-08;-4.66732e-09;6.67733e-10;0.00106665;-0.000520133;0.000163083;39.0674;-3.1492e+08;1.45749;7.38025e+08;2.04348e+09;0;0;1e+30;-0.105134;428.496;1.33548e+09;109690;2.12673;3509.69;0.00527455;1.68568e-06;-5.37011e+07;-1.86446e+08;-7.04615e+08;5.78925e+07;-2.44305e+08;-1.49164e+07;-9.57608e+06;-1.33476e+08;-8.01709e+08;0.235219;0.554702;0.125292;-0.355616;0.230324;-0.0457782;0.727698;-0.0319674;0.0902473;-0.39066;0.195279;-0.0457782;0.727698;-0.0319674;0.371547;-0.0319993;0.160248;0.333682;0.0884352;0.088087;0.00161712;0.00767073;-0.565117;-0.0118606;-0.509749;0.243665;-0.105134;-0.124303;-5.37011e+07;-1.86446e+08;-7.04615e+08;5.78925e+07;-2.44305e+08;-1.49163e+07;-9.5761e+06;-7.68726e+06;-5.3336e+06;2.03973e+06;-1.33476e+08;7.95814e+07;-9.92578e+07;4.03792e+07;-8.01709e+08;8.09576e+06;-2.96509e+08;-7.44818e+08
82;0.0755215;0.0854182;-0.37196;1.05236e-08;-4.41658e-09;1.21726e-09;0.00106432;-0.000493403;0.000215134;39.0619;-3.51821e+08;1.44065;7.34636e+08;2.02627e+09;0;0;1e+30;-0.107213;428.496;1.33548e+09;109692;2.12676;3512.62;0.00527316;7.25428e-06;-4.94672e+07;-3.63357e+08;-6.4264e+08;6.69572e+07;-2.89961e+08;-5.72056e+07;-5.94154e+06;-2.24475e+08;-8.25048e+08;0.234138;0.51846;0.11429;-0.236639;0.122349;-0.0352845;0.797331;-0.0369132;0.078552;-0.272377;0.0866115;-0.0352845;0.797331;-0.0369132;0.346673;-0.032287;0.187535;0.289776;0.0762441;0.0759103;0.00335078;0.00628944;-0.53013;-0.00418204;-0.445257;0.287692;-0.107213;-0.126162;-4.94673e+07;-3.63357e+08;-6.4264e+08;6.69572e+07;-2.89961e+08;-5.72057e+07;-5.94153e+06;-5.31958e+06;-2.19545e+06;1.47779e+06;-2.24475e+08;9.99146e+07;-1.71328e+08;1.05132e+08;-8.25048e+08;-1.38403e+07;-4.373e+08;-6.99486e+08
83;0.0751834;0.0757635;-0.386879;1.05591e-08;-3.70568e-09;2.27366e-09;0.00106996;-0.000428217;0.00032789;39.0044;-3.70013e+08;1.41291;7.55476e+08;2.02528e+09;0;0;1e+30;-0.109674;428.496;1.33547e+09;109688;2.12674;3522.9;0.0052577;1.32436e-05;-9.36027e+07;-4.43616e+08;-5.72822e+08;8.27299e+07;-3.36765e+08;-9.22901e+07;-1.50158e+06;-2.56952e+08;-8.51586e+08;0.240778;0.513405;0.0838351;-0.00807738;-0.0757577;-0.0046546;0.874214;-0.0285825;0.047277;-0.0446354;-0.112316;-0.0046546;0.874214;-0.0285825;0.360356;-0.0131345;0.264195;0.244714;0.0470013;0.0469642;0.00176121;0.00061928;-0.517031;-0.00816223;0.351082;-0.379469;-0.109674;-0.128515;-9.36026e+07;-4.43616e+08;-5.72822e+08;8.27298e+07;-3.36765e+08;-9.22902e+07;-1.50156e+06;-1.20211e+06;-676682;593057;-2.56952e+08;1.5384e+08;-1.61646e+08;1.2739e+08;-8.51586e+08;-2.13267e+07;-5.3937e+08;-6.58654e+08
84;0.0734458;0.0623278;-0.401256;1.06515e-08;-2.70156e-09;3.27856e-09;0.00108504;-0.00033752;0.000435885;38.9192;-3.31195e+08;1.35198;6.67422e+08;2.00297e+09;0;0;1e+30;-0.109863;428.495;1.33547e+09;109754;2.13014;3531.16;0.0052347;2.40943e-05;-6.17711e+07;-4.99965e+08;-4.31848e+08;7.19019e+07;-2.79822e+08;-9.70141e+07;1.21457e+07;-2.5777e+08;-7.47961e+08;0.212711;0.556546;0.0231817;0.252883;-0.276065;-0.0467693;0.792667;-0.13162;-0.0134394;0.216262;-0.312686;-0.0467693;0.792667;-0.13162;0.434253;-0.0500324;0.379202;0.205617;-0.0151234;-0.0149592;-0.00218768;0.000394574;-0.528993;-0.0482845;0.246165;-0.465731;-0.109863;-0.128969;-6.17711e+07;-4.99965e+08;-4.31848e+08;7.19018e+07;-2.79822e+08;-9.70141e+07;1.21456e+07;1.03531e+07;4.10243e+06;-4.84769e+06;-2.57769e+08;-1.34718e+08;1.47854e+08;-1.62589e+08;-7.47961e+08;-1.18834e+07;-5.58174e+08;-4.97741e+08
85;0.0739831;0.044584;-0.410717;1.05669e-08;-1.44188e-09;3.95552e-09;0.00107634;-0.000211014;0.000492047;38.9156;-3.46982e+08;1.29739;7.10036e+08;2.02549e+09;0;0;1e+30;-0.104218;428.496;1.33547e+09;109687;2.12672;3525.46;0.00523388;6.16867e-06;-6.90625e+07;-6.76634e+08;-2.95249e+08;2.99879e+07;-2.51991e+08;-9.67404e+07;-7.28157e+06;-2.31344e+08;-8.02319e+08;0.226292;0.588027;0.0500249;0.40663;-0.456654;-0.114452;0.510179;-0.105728;0.0152857;0.37189;-0.491394;-0.114452;0.510179;-0.105728;0.452595;-0.0708801;0.430517;0.120306;0.00656789;0.00647387;0.00110039;-0.000123579;-0.563381;-0.0351731;0.145951;-0.54301;-0.104218;-0.123195;-6.90625e+07;-6.76634e+08;-2.95249e+08;2.99879e+07;-2.51991e+08;-9.67404e+07;-7.28157e+06;-6.20248e+06;-1.58422e+06;3.46998e+06;-2.31344e+08;-1.21079e+08;9.0849e+07;-1.74947e+08;-8.02319e+08;-1.81413e+07;-7.16921e+08;-3.59738e+08
86;0.0754093;0.0297788;-0.414913;1.04289e-08;-3.81186e-10;4.25524e-09;0.00106624;-0.000103051;0.000520298;38.9155;-3.90497e+08;1.21463;7.63324e+08;2.00977e+09;0;0;1e+30;-0.107231;428.496;1.33547e+09;109688;2.12675;3529.38;0.00523384;2.7723e-05;-1.52919e+08;-8.51213e+08;-1.6736e+08;9.90679e+06;-1.42304e+08;-1.20939e+08;-2.5078e+07;-2.66495e+08;-8.7992e+08;0.243275;0.458079;0.040643;0.366577;-0.40722;-0.0289878;0.154272;0.0339322;0.00489945;0.330834;-0.442964;-0.0289878;0.154272;0.0339322;0.338936;-0.0129512;0.337079;0.0329727;0.00514665;0.00513875;0.000175455;0.000224762;-0.451313;0.0181048;0.0445908;-0.44874;-0.107231;-0.12595;-1.52919e+08;-8.51213e+08;-1.6736e+08;9.90679e+06;-1.42304e+08;-1.20939e+08;-2.50781e+07;-1.72191e+07;-3.29532e+06;1.79319e+07;-2.66495e+08;-1.93675e+08;4.01829e+07;-1.78591e+08;-8.7992e+08;-1.73847e+07;-8.62141e+08;-1.75128e+08
87;0.075729;0.0146939;-0.41732;1.03387e-08;6.95105e-10;4.42296e-09;0.00106429;5.37627e-06;0.000539039;38.9272;-4.24341e+08;1.32692;7.66554e+08;2.00565e+09;0;0;1e+30;-0.0985787;428.495;1.33547e+09;109690;2.12675;3532.89;0.00523721;1.62976e-05;-1.60936e+08;-9.09848e+08;-2.02239e+08;4.68929e+06;-4.44862e+07;-1.29046e+08;-4.96717e+07;-3.10702e+08;-9.1265e+08;0.244304;0.554404;0.00705715;0.466689;-0.473746;-0.0360863;-0.166764;-0.0917165;-0.0258024;0.43383;-0.506606;-0.0360863;-0.166764;-0.0917165;0.441584;-0.0132447;0.439744;-0.0380296;-0.0216853;-0.0215763;-0.000466462;0.00212065;-0.518478;-0.0495312;-0.0459481;-0.514057;-0.0985787;-0.117096;-1.60936e+08;-9.09848e+08;-2.02239e+08;4.68928e+06;-4.44862e+07;-1.29046e+08;-4.96718e+07;-3.76261e+07;-1.87938e+06;3.23732e+07;-3.10702e+08;-2.02834e+08;1.58481e+07;-2.34825e+08;-9.1265e+08;-4.24169e+06;-9.10808e+08;-5.78056e+07
88;0.0739749;-0.00357292;-0.416796;1.03789e-08;2.00948e-09;4.37093e-09;0.00107804;0.000135649;0.00053688;38.9254;-4.74608e+08;1.23455;7.48578e+08;2.01684e+09;0;0;1e+30;-0.09869;428.495;1.33547e+09;109689;2.12674;3533.38;0.00523674;1.88139e-05;-1.95441e+08;-9.02847e+08;-3.25536e+08;-5.25912e+07;1.42173e+08;-1.48452e+08;-7.98474e+07;-4.07578e+08;-9.36398e+08;0.238575;0.546238;0.0653653;0.376753;-0.442119;0.074387;-0.449074;-0.0675105;0.0324686;0.343857;-0.475015;0.074387;-0.449074;-0.0675105;0.406662;0.0479983;0.390886;-0.101385;0.028167;0.0279456;-0.00351137;-0.000307793;-0.533519;-0.0221853;-0.131277;-0.51664;-0.09869;-0.116908;-1.95441e+08;-9.02847e+08;-3.25536e+08;-5.25912e+07;1.42173e+08;-1.48452e+08;-7.98474e+07;-6.42906e+07;1.20206e+07;4.5802e+07;-4.07578e+08;-2.41499e+08;-6.66444e+07;-3.21492e+08;-9.36398e+08;-2.3366e+07;-9.12976e+08;2.0681e+08
89;0.0751818;-0.0226624;-0.409995;1.01825e-08;3.36967e-09;3.90403e-09;0.00106352;0.000270944;0.000486089;38.94;-4.02411e+08;1.16618;7.23485e+08;2.00933e+09;0;0;1e+30;-0.103856;428.495;1.33547e+09;109690;2.12675;3531.51;0.0052408;1.75263e-05;-1.14047e+08;-7.15943e+08;-3.77244e+08;-6.80937e+07;2.61198e+08;-1.02816e+08;-3.75751e+07;-3.11612e+08;-8.58047e+08;0.230579;0.422709;-0.0091742;0.108163;-0.0989892;-0.0717111;-0.698319;0.00956768;-0.043793;0.0735445;-0.133608;-0.0717111;-0.698319;0.00956768;0.336793;-0.0278946;0.26937;-0.200227;-0.0455323;-0.0453181;-0.00165265;0.00409015;-0.395117;-0.0198618;-0.236735;-0.31572;-0.103856;-0.122504;-1.14047e+08;-7.15943e+08;-3.77244e+08;-6.80937e+07;2.61198e+08;-1.02816e+08;-3.75752e+07;-3.19143e+07;9.83516e+06;1.72233e+07;-3.11612e+08;-1.64415e+08;-1.23544e+08;-2.34108e+08;-8.58047e+08;-1.27982e+07;-7.55034e+08;4.07437e+08
90;0.074391;-0.0406214;-0.397369;1.01173e-08;4.65794e-09;3.01538e-09;0.00107104;0.000389837;0.00040183;38.9372;-3.60963e+08;1.47498;7.38861e+08;2.03159e+09;0;0;1e+30;-0.101772;428.495;1.33547e+09;109690;2.12676;3531.99;0.00523993;1.8469e-05;-1.04662e+08;-4.8899e+08;-4.89236e+08;-7.90492e+07;3.50614e+08;-5.93749e+07;-2.21077e+07;-2.20785e+08;-8.39995e+08;0.235479;0.451435;0.0617908;-0.119822;0.0580316;0.112182;-0.745076;0.0239197;0.0278668;-0.153746;0.0241077;0.112182;-0.745076;0.0239197;0.320411;-0.0280061;-0.199236;0.249367;0.0311489;0.030852;0.000911211;0.00419299;-0.453332;0.0482663;-0.354785;-0.278042;-0.101772;-0.120667;-1.04662e+08;-4.8899e+08;-4.89236e+08;-7.90492e+07;3.50614e+08;-5.93749e+07;-2.21077e+07;-1.69183e+07;1.02658e+07;9.85563e+06;-2.20785e+08;-1.42058e+08;-1.17256e+08;-1.21724e+08;-8.39995e+08;1.61696e+07;5.95345e+08;-5.92363e+08
91;0.0738379;-0.0496992;-0.386637;1.00747e-08;5.31394e-09;2.24691e-09;0.0010705;0.000453378;0.000317478;38.9373;-3.91166e+08;1.46197;7.6091e+08;2.03141e+09;0;0;1e+30;-0.106666;428.495;1.33547e+09;109689;2.12677;3532.67;0.00523996;1.02827e-05;-8.74364e+07;-4.61059e+08;-6.25002e+08;-9.27937e+07;3.25997e+08;-4.69291e+07;-2.8576e+07;-2.65228e+08;-8.79692e+08;0.242506;0.589249;0.131519;-0.337283;0.205764;0.00162766;-0.832651;0.0392627;0.0959633;-0.372838;0.170209;0.00162766;-0.832651;0.0392627;0.396676;0.0222312;-0.188442;0.348349;0.0951621;0.0950025;0.00375277;-0.00403286;-0.598504;0.0086777;-0.526129;-0.285166;-0.106666;-0.125381;-8.74366e+07;-4.61058e+08;-6.25002e+08;-9.27937e+07;3.25997e+08;-4.69292e+07;-2.8576e+07;-2.47971e+07;1.15498e+07;8.26406e+06;-2.65228e+08;-1.31637e+08;-1.78911e+08;-1.44944e+08;-8.79692e+08;2.26952e+07;5.43431e+08;-6.91394e+08
92;0.0735193;-0.0561381;-0.375926;1.00339e-08;5.78296e-09;1.49197e-09;0.00107378;0.000503337;0.000238735;38.968;-3.27149e+08;1.49871;7.01645e+08;2.03416e+09;0;0;1e+30;-0.105746;428.496;1.33547e+09;109688;2.12669;3533.56;0.00524824;1.48299e-05;-5.19268e+06;-3.44283e+08;-6.31972e+08;-8.77055e+07;2.39999e+08;-1.94161e+07;2.70197e+07;-2.39611e+08;-7.68857e+08;0.22362;0.533237;0.130986;-0.400628;0.269641;-0.0324879;-0.591805;-0.031647;0.0957377;-0.435876;0.234393;-0.0324879;-0.591805;-0.031647;0.346657;-0.0125224;-0.122303;0.324124;0.0960816;0.0959689;-0.00412676;0.00215055;-0.548485;-0.0176953;-0.512675;-0.194132;-0.105746;-0.124842;-5.19275e+06;-3.44283e+08;-6.31972e+08;-8.77054e+07;2.39999e+08;-1.94161e+07;2.70196e+07;2.53701e+07;-8.46958e+06;-3.83203e+06;-2.39611e+08;-8.20091e+07;-1.93843e+08;-1.14511e+08;-7.68857e+08;2.69638e+07;3.8233e+08;-6.66512e+08
93;0.0729349;-0.0606507;-0.36424;1.00179e-08;6.12051e-09;6.61342e-10;0.00108179;0.000546721;0.000160504;38.973;-3.27673e+08;1.53457;7.22347e+08;2.04099e+09;0;0;1e+30;-0.1052;428.496;1.33547e+09;109689;2.12676;3530.18;0.00524948;1.07274e-05;-3.01909e+07;-1.97887e+08;-7.54941e+08;-1.03763e+08;1.36776e+08;2.24708e+07;2.14719e+07;-2.15014e+08;-7.89476e+08;0.230218;0.529524;0.130469;-0.469026;0.338557;-0.0566151;-0.351258;-0.1065;0.0954025;-0.504092;0.30349;-0.0566151;-0.351258;-0.1065;0.34858;-0.0631967;-0.0671431;0.336163;0.0891925;0.0875482;-0.00854421;0.014752;-0.542972;-0.0328632;-0.530259;-0.112089;-0.1052;-0.124293;-3.01908e+07;-1.97887e+08;-7.54941e+08;-1.03763e+08;1.36776e+08;2.24708e+07;2.14719e+07;1.9091e+07;-9.75784e+06;-1.16645e+06;-2.15014e+08;-9.75358e+07;-1.84746e+08;-5.08598e+07;-7.89476e+08;4.80147e+07;1.85492e+08;-7.65872e+08
94;0.0720487;-0.062529;-0.353707;1.00368e-08;6.26649e-09;-9.09568e-11;0.0010871;0.000554309;8.34281e-05;38.9873;-3.41615e+08;1.5706;7.36979e+08;2.04025e+09;0;0;1e+30;-0.107297;428.496;1.33547e+09;109685;2.12661;3526.8;0.00525325;7.04464e-06;-4.24566e+07;-1.66431e+08;-8.15959e+08;-7.31e+07;5.40915e+07;1.35325e+07;-8.46209e+06;-1.95458e+08;-8.20926e+08;0.234882;0.504521;0.133271;-0.485763;0.352492;-0.0418404;-0.0423364;-0.0642272;0.0975052;-0.521528;0.316727;-0.0418404;-0.0423364;-0.0642272;0.321719;-0.0449741;-0.00687923;0.318485;0.0938096;0.0928302;-0.00360431;0.0130309;-0.522825;-0.0183329;-0.522319;-0.0138708;-0.107297;-0.126305;-4.24567e+07;-1.66431e+08;-8.15959e+08;-7.30999e+07;5.40915e+07;1.35325e+07;-8.46214e+06;-7.66443e+06;3.58496e+06;111700;-1.95458e+08;-8.26973e+07;-1.76267e+08;-1.71694e+07;-8.20926e+08;2.07778e+07;6.98988e+07;-8.17681e+08
95;0.37143;0.020249;-0.491544;-1.06507e-08;-9.2015e-10;1.09931e-08;-0.00103922;-3.82787e-05;0.00108296;39.2024;-2.96536e+08;0.616265;4.06098e+08;1.88978e+09;0;0;1e+30;-0.0971804;428.495;1.33547e+09;109701;2.12681;3544.82;0.00531241;5.48109e-05;-1.79819e+08;-4.87561e+08;-2.22229e+08;4.90977e+06;-8.35562e+06;-1.64501e+08;-3.49751e+07;-3.6681e+08;-4.87824e+08;0.129432;0.0900588;-0.0390511;0.0876665;-0.0486154;-0.0306501;-0.0128098;-0.00897236;-0.0714446;0.055273;-0.0810089;-0.0306501;-0.0128098;-0.00897236;0.057346;-0.00668686;0.0569035;-0.00241743;-0.0707016;-0.0631233;-0.00608984;0.0312581;-0.0838249;-0.0364697;-0.0074763;-0.0751044;-0.0971804;-0.116459;-1.79819e+08;-4.87561e+08;-2.22229e+08;4.90979e+06;-8.35562e+06;-1.64501e+08;-3.49751e+07;-2.62548e+07;-711222;2.30963e+07;-3.6681e+08;-2.42342e+08;9.18934e+06;-2.752e+08;-4.87824e+08;-627818;-4.8757e+08;-1.57278e+07
96;0.37086;0.0447581;-0.48931;-1.05311e-08;-2.64054e-09;1.08532e-08;-0.00103495;-0.000214599;0.00106677;39.2237;-2.85271e+08;0.569121;5.11721e+08;1.88483e+09;0;0;1e+30;-0.0970958;428.495;1.33547e+09;109702;2.12682;3542.8;0.00531815;0.000100558;-1.19623e+08;-4.91079e+08;-2.45112e+08;5.54853e+07;-6.49811e+07;-2.10429e+08;5.0065e+07;-3.98641e+08;-5.07238e+08;0.163097;0.0740741;-0.0315881;0.0689728;-0.0373846;0.00806853;0.0149196;-0.0432191;-0.0639534;0.0366075;-0.0697499;0.00806853;0.0149196;-0.0432191;0.0371938;0.000968773;0.0371042;0.00239243;-0.0450908;-0.0340551;-0.00101531;0.0295365;-0.0891987;-0.0584174;0.0058552;-0.0671531;-0.0970958;-0.116442;-1.19623e+08;-4.91079e+08;-2.45112e+08;5.54853e+07;-6.49811e+07;-2.10429e+08;5.0065e+07;3.9481e+07;7.62956e+06;-2.98253e+07;-3.9864e+08;-2.45059e+08;6.86067e+07;-3.06844e+08;-5.07238e+08;7.49432e+06;-4.93655e+08;-1.16361e+08
97;0.371051;0.0696516;-0.483829;-1.04747e-08;-4.38515e-09;1.04747e-08;-0.0010365;-0.000392157;0.00102652;39.2024;-3.41474e+08;0.675823;5.03985e+08;1.89686e+09;0;0;1e+30;-0.0984175;428.496;1.33547e+09;109697;2.12679;3536.4;0.00531215;3.83597e-05;-1.66178e+08;-5.2972e+08;-3.28524e+08;7.3867e+07;-8.7796e+07;-1.95796e+08;-1.18464e+07;-4.49931e+08;-5.62645e+08;0.160631;0.0696312;-0.0244658;0.0601872;-0.0357214;0.0102792;0.0451332;-0.0375323;-0.0572716;0.0273813;-0.0685273;0.0102792;0.0451332;-0.0375323;0.0324357;0.000347112;0.0316664;0.00701337;-0.0443543;-0.0369282;-0.00492607;0.0240696;-0.0864989;-0.0479042;0.0160741;-0.0702059;-0.0984175;-0.117429;-1.66178e+08;-5.2972e+08;-3.28524e+08;7.3867e+07;-8.7796e+07;-1.95796e+08;-1.18464e+07;-9.53406e+06;-2.47559e+06;6.58107e+06;-4.49931e+08;-2.6705e+08;1.26225e+08;-3.39396e+08;-5.62645e+08;1.00382e+06;-5.27095e+08;-1.96822e+08
98;0.371182;0.086894;-0.475196;-1.04644e-08;-5.60602e-09;9.88616e-09;-0.00103678;-0.000516051;0.000964125;39.203;-2.81691e+08;0.689598;4.13912e+08;1.89922e+09;0;0;1e+30;-0.0982734;428.496;1.33547e+09;109698;2.1268;3536.37;0.00531233;5.81691e-05;-1.71905e+08;-4.06551e+08;-2.66618e+08;8.428e+07;-1.1821e+08;-1.48647e+08;-1.41404e+07;-3.56984e+08;-4.73949e+08;0.131923;0.08109;-0.0262953;0.0476615;-0.0213662;-0.0245989;0.11061;-0.00692093;-0.0590531;0.0149037;-0.054124;-0.0245989;0.11061;-0.00692093;0.047039;-0.00547889;0.0409138;0.0225547;-0.0601644;-0.0593375;-0.00266683;-0.00957642;-0.085148;0.00997855;0.041845;-0.0734821;-0.0982734;-0.117641;-1.71905e+08;-4.06551e+08;-2.66618e+08;8.428e+07;-1.1821e+08;-1.48647e+08;-1.41404e+07;-1.03895e+07;-4.74301e+06;8.33753e+06;-3.56984e+08;-2.4216e+08;1.3065e+08;-2.27435e+08;-4.73949e+08;-992298;-4.11422e+08;-2.35284e+08
99;0.371881;0.108103;-0.461852;-1.05034e-08;-7.11122e-09;8.96783e-09;-0.0010417;-0.000668135;0.000867884;39.2025;-3.21503e+08;0.716129;4.85255e+08;1.9011e+09;0;0;1e+30;-0.0985644;428.496;1.33547e+09;109698;2.1268;3536.31;0.00531218;3.15471e-05;-1.92886e+08;-4.14886e+08;-3.56737e+08;1.38871e+08;-1.68072e+08;-1.33062e+08;-1.20985e+07;-3.94399e+08;-5.58013e+08;0.154662;0.0543793;-0.0192732;0.0350976;-0.0158244;0.0248493;0.0674271;-0.000130878;-0.052128;0.00224278;-0.0486792;0.0248493;0.0674271;-0.000130878;0.020727;0.0031351;0.0184305;0.00894954;-0.0516096;-0.0473543;-0.00186824;0.020436;-0.0676818;-0.0248887;0.030868;-0.0548502;-0.0985644;-0.117695;-1.92886e+08;-4.14886e+08;-3.56737e+08;1.38871e+08;-1.68072e+08;-1.33062e+08;-1.20985e+07;-8.8061e+06;-5.59295e+06;6.1275e+06;-3.94399e+08;-2.6864e+08;1.58611e+08;-2.413e+08;-5.58013e+08;4.41685e+07;-4.40994e+08;-3.39046e+08
100;0.371672;0.124369;-0.44422;-1.05189e-08;-8.27991e-09;7.74911e-09;-0.00104039;-0.000783501;0.000741144;39.2751;-3.13865e+08;0.646475;4.23949e+08;1.88861e+09;0;0;1e+30;-0.0983785;428.496;1.33547e+09;109699;2.12677;3533.73;0.0053317;7.75893e-05;-1.93493e+08;-3.73528e+08;-3.74574e+08;1.39588e+08;-1.24819e+08;-1.18233e+08;-3.66365e+07;-4.04842e+08;-5.00116e+08;0.135124;0.0926181;-0.0523319;0.0343247;0.0180072;-0.00562853;0.13029;-0.0156507;-0.0851247;0.00153185;-0.0147856;-0.00562853;0.13029;-0.0156507;0.0593951;-0.00299402;0.0444149;0.0393208;-0.0711647;0.0191055;0.0461583;-0.0506834;-0.0866089;-0.083315;0.0122839;-0.0202191;-0.0983785;-0.117554;-1.93492e+08;-3.73529e+08;-3.74574e+08;1.39588e+08;-1.24819e+08;-1.18233e+08;-3.66365e+07;-2.7801e+07;-1.75204e+07;1.61979e+07;-4.04842e+08;2.61461e+08;-1.88208e+08;2.4518e+08;-5.00116e+08;4.20501e+07;-3.72638e+08;-3.30891e+08
101;0.371603;0.140442;-0.425637;-1.05547e-08;-9.44453e-09;6.44757e-09;-0.00103879;-0.000898137;0.000607137;39.3107;-3.26634e+08;0.602317;4.43462e+08;1.88577e+09;0;0;1e+30;-0.0982648;428.495;1.33547e+09;109702;2.1268;3532.25;0.00534123;5.98764e-05;-1.85321e+08;-3.76825e+08;-4.17756e+08;1.52398e+08;-1.10531e+08;-1.21305e+08;-3.40798e+07;-4.36009e+08;-5.09813e+08;0.141344;0.103678;-0.0542016;0.0372179;0.0169836;-0.0114025;0.151285;0.00270848;-0.0869565;0.004463;-0.0157713;-0.0114025;0.151285;0.00270848;0.0707353;-0.00152551;0.0532487;0.0465375;-0.0790985;-0.0407725;0.0439377;-0.0516105;-0.0899017;-0.0770133;-0.0317534;0.033808;-0.0982648;-0.117364;-1.85321e+08;-3.76825e+08;-4.17756e+08;1.52398e+08;-1.10531e+08;-1.21305e+08;-3.40798e+07;-2.69176e+07;-1.62199e+07;1.31831e+07;-4.36009e+08;2.67153e+08;-2.54905e+08;2.31856e+08;-5.09813e+08;1.3733e+07;-3.34963e+08;-3.84084e+08
102;0.372384;0.152454;-0.405699;-1.06718e-08;-1.03102e-08;5.06078e-09;-0.00104435;-0.000983807;0.00046498;39.3202;-3.13582e+08;0.599537;4.58505e+08;1.88754e+09;0;0;1e+30;-0.0967155;428.495;1.33547e+09;109701;2.12676;3532.48;0.00534366;5.03158e-05;-1.52233e+08;-3.30666e+08;-4.57847e+08;1.75502e+08;-9.33473e+07;-8.36177e+07;-1.20074e+07;-4.21184e+08;-5.07555e+08;0.146139;0.0940504;-0.0380691;-0.010975;0.0490441;0.000549758;0.135929;-0.0104568;-0.0703076;-0.0432135;0.0168057;0.000549758;0.135929;-0.0104568;0.0612273;-0.00196914;0.0333742;0.0512939;-0.0699035;-0.0688186;-0.0113213;0.00472425;-0.0880392;0.0151884;-0.07242;0.0477029;-0.0967155;-0.115892;-1.52233e+08;-3.30666e+08;-4.57847e+08;1.75502e+08;-9.33472e+07;-8.36177e+07;-1.20074e+07;-9.73775e+06;-6.28348e+06;3.14192e+06;-4.21184e+08;2.45759e+08;-2.90848e+08;1.80018e+08;-5.07555e+08;2.18101e+07;-2.53422e+08;-4.39219e+08
103;0.371214;0.161378;-0.382199;-1.06937e-08;-1.09812e-08;3.4009e-09;-0.0010346;-0.00104775;0.000296292;39.3874;-2.91816e+08;0.608367;3.69747e+08;1.88792e+09;0;0;1e+30;-0.0968813;428.495;1.33547e+09;109704;2.12683;3527.92;0.00536185;5.89886e-05;-1.73284e+08;-2.725e+08;-4.29664e+08;1.45538e+08;-6.5507e+07;-5.81895e+07;-4.98519e+07;-3.72044e+08;-4.53553e+08;0.117851;0.0986579;-0.0529555;-0.019041;0.0719965;-0.00597479;0.109816;-0.0201026;-0.0852493;-0.0513348;0.0397027;-0.00597479;0.109816;-0.0201026;0.0662159;-0.00452227;0.0280521;0.0598095;-0.076868;-0.0130275;-0.0689607;0.0313592;-0.0862292;-0.0847775;0.0107976;-0.0114745;-0.0968813;-0.116189;-1.73284e+08;-2.725e+08;-4.29664e+08;1.45538e+08;-6.5507e+07;-5.81895e+07;-4.98519e+07;-3.91634e+07;-2.8828e+07;1.09721e+07;-3.72044e+08;2.29889e+08;-2.7966e+08;8.5778e+07;-4.53553e+08;-1.4566e+07;-1.43832e+08;-4.29896e+08
104;0.37235;0.167578;-0.357831;-1.08864e-08;-1.14546e-08;1.68478e-09;-0.00104358;-0.00109155;0.000122183;39.3873;-3.08834e+08;0.638842;4.36848e+08;1.89021e+09;0;0;1e+30;-0.0974222;428.496;1.33547e+09;109702;2.12683;3528.24;0.0053618;6.5276e-05;-1.47977e+08;-2.83541e+08;-4.94986e+08;1.72099e+08;-4.73664e+07;-3.41577e+07;-2.43754e+07;-3.96987e+08;-5.05141e+08;0.139238;0.084124;-0.0370537;-0.0326904;0.0697441;0.0308661;0.0669647;0.0343772;-0.0695277;-0.0651645;0.03727;0.0308661;0.0669647;0.0343772;0.050887;0.00874757;0.0149667;0.0478431;-0.064365;-0.0469828;-0.0388042;0.0207293;-0.0839442;0.0555322;-0.0622567;0.00932218;-0.0974222;-0.116628;-1.47977e+08;-2.83541e+08;-4.94986e+08;1.72099e+08;-4.73664e+07;-3.41577e+07;-2.43754e+07;-1.99271e+07;-1.37499e+07;2.83025e+06;-3.96987e+08;2.28585e+08;-3.16218e+08;7.31657e+07;-5.05141e+08;5.79661e+06;-1.09881e+08;-4.93011e+08
105;0.371748;0.167324;-0.337711;-1.09637e-08;-1.14644e-08;2.52303e-10;-0.00103917;-0.0010886;-2.11599e-05;39.4689;-2.83945e+08;0.603798;4.2732e+08;1.89194e+09;0;0;1e+30;-0.0972308;428.495;1.33547e+09;109706;2.12683;3522.37;0.00538374;3.40245e-05;-1.45777e+08;-2.36642e+08;-4.69418e+08;1.75003e+08;-4.24132e+07;-2.40479e+07;-6.0314e+06;-3.68679e+08;-4.77126e+08;0.136203;0.0935607;-0.047784;-0.0442648;0.0920488;0.0235071;0.0159496;-0.00474311;-0.0801943;-0.076675;0.0596385;0.0235071;0.0159496;-0.00474311;0.0601238;-0.000726574;0.00343656;0.0600212;-0.0667074;-0.0440326;-0.0500556;0.00233295;-0.0906472;-0.0680845;0.0596945;-0.00424204;-0.0972308;-0.116585;-1.45777e+08;-2.36642e+08;-4.69418e+08;1.75003e+08;-4.24132e+07;-2.40479e+07;-6.0314e+06;-4.72984e+06;-3.6967e+06;583813;-3.68679e+08;2.28448e+08;-2.82147e+08;6.42558e+07;-4.77126e+08;1.56234e+07;-9.38289e+07;-4.67548e+08
106;0.371754;0.166583;-0.324668;-1.10365e-08;-1.14369e-08;-6.85025e-10;-0.00103944;-0.00108239;-0.000114951;39.5023;-3.25976e+08;0.620905;5.6268e+08;1.88848e+09;0;0;1e+30;-0.0972489;428.496;1.33547e+09;109704;2.12683;3520.03;0.00539272;2.52162e-05;-8.97212e+07;-3.0936e+08;-5.78846e+08;2.11978e+08;3.37867e+06;2.39288e+07;3.9992e+07;-4.37636e+08;-5.80283e+08;0.179349;0.0850187;-0.035291;-0.0482099;0.0835009;0.0185072;-0.00985437;-0.0126814;-0.0677072;-0.0806262;0.0510846;0.0185072;-0.00985437;-0.0126814;0.0516446;-0.00290155;-0.00212213;0.0515194;-0.0634262;-0.0562363;-0.0290057;-0.00436198;-0.0854673;0.0392321;-0.0759253;-0.000917888;-0.0972489;-0.116353;-8.97212e+07;-3.0936e+08;-5.78846e+08;2.11978e+08;3.37867e+06;2.39289e+07;3.9992e+07;3.41621e+07;2.07426e+07;1.43421e+06;-4.37636e+08;2.25724e+08;-3.73785e+08;2.9307e+07;-5.80283e+08;3.79293e+07;-2.24612e+07;-5.78607e+08
107;0.371841;0.164878;-0.311843;-1.11259e-08;-1.13325e-08;-1.5986e-09;-0.0010401;-0.00106981;-0.000206098;39.5245;-3.17899e+08;0.6348;5.4228e+08;1.88737e+09;0;0;1e+30;-0.0969694;428.496;1.33548e+09;109704;2.12681;3518.14;0.00539866;2.25042e-05;-1.03149e+08;-2.96384e+08;-5.54163e+08;2.06946e+08;4.50191e+07;4.43652e+07;3.50684e+07;-4.26683e+08;-5.62081e+08;0.172847;0.0812891;-0.0225498;-0.0518706;0.0744203;0.0119214;-0.0383743;-0.027096;-0.0548729;-0.0841937;0.0420972;0.0119214;-0.0383743;-0.027096;0.0469519;-0.00652647;-0.00702121;0.045963;-0.056387;-0.0553966;-0.00583245;-0.00875695;-0.0875344;0.0108964;-0.0860752;-0.0116014;-0.0969694;-0.116121;-1.03149e+08;-2.96384e+08;-5.54163e+08;2.06946e+08;4.50191e+07;4.43652e+07;3.50684e+07;2.93602e+07;1.8827e+07;3.64906e+06;-4.26682e+08;2.32961e+08;-3.5473e+08;-4.4197e+07;-5.62081e+08;1.73675e+07;8.06783e+07;-5.5599e+08
108;0.371759;0.158854;-0.290036;-1.12795e-08;-1.09302e-08;-3.17765e-09;-0.00103908;-0.00102632;-0.000361945;39.5638;-2.73074e+08;0.541891;4.39187e+08;1.87755e+09;0;0;1e+30;-0.0963279;428.496;1.33548e+09;109706;2.12688;3515.74;0.00540926;8.46507e-05;-1.43479e+08;-2.61306e+08;-4.14436e+08;1.81738e+08;8.21613e+07;7.78321e+07;1.73944e+07;-3.86429e+08;-4.50187e+08;0.139989;0.0653691;-0.0199462;-0.0347189;0.054665;0.0127533;-0.0586139;0.0061708;-0.0520555;-0.0668282;0.0225557;0.0127533;-0.0586139;0.0061708;0.0313233;0.00042746;-0.00893548;0.0300187;-0.0501484;-0.0483494;-0.0129308;-0.00316053;-0.0775028;0.0205452;-0.0715438;-0.0215886;-0.0963279;-0.115747;-1.43479e+08;-2.61306e+08;-4.14436e+08;1.81738e+08;8.21614e+07;7.78321e+07;1.73944e+07;1.3492e+07;1.00802e+07;4.34965e+06;-3.86429e+08;2.43877e+08;-2.73127e+08;-1.23504e+08;-4.50187e+08;-3.81364e+06;1.82648e+08;-4.11453e+08
109;0.372285;0.150025;-0.268352;-1.14792e-08;-1.03181e-08;-4.74333e-09;-0.00104317;-0.000962885;-0.000516469;39.5691;-3.16215e+08;0.576501;4.1892e+08;1.8787e+09;0;0;1e+30;-0.097083;428.497;1.33548e+09;109703;2.12686;3511.57;0.00541056;4.74388e-05;-1.54652e+08;-3.41476e+08;-4.52516e+08;1.52687e+08;8.18817e+07;7.62936e+07;-4.12411e+07;-4.1139e+08;-4.96013e+08;0.133529;0.0708922;-0.0274883;-0.0133246;0.0408128;0.0238229;-0.0944979;0.0195458;-0.0598493;-0.0456856;0.00845183;0.0238229;-0.0944979;0.0195458;0.0359024;0.000951534;-0.0178819;0.0311177;-0.049929;-0.0417145;-0.0243209;-0.0127005;-0.0830564;0.0455887;-0.0595839;-0.0356341;-0.097083;-0.116245;-1.54652e+08;-3.41476e+08;-4.52516e+08;1.52687e+08;8.18817e+07;7.62936e+07;-4.12411e+07;-3.43494e+07;-2.03093e+07;-1.04154e+07;-4.1139e+08;2.27511e+08;-2.97489e+08;-1.70237e+08;-4.96013e+08;-1.04928e+07;2.40232e+08;-4.33829e+08
110;0.372244;0.138406;-0.249298;-1.16353e-08;-9.50512e-09;-6.12169e-09;-0.00104283;-0.000879818;-0.00065175;39.5846;-2.99111e+08;0.588893;4.24767e+08;1.88062e+09;0;0;1e+30;-0.0972403;428.497;1.33548e+09;109703;2.12686;3511.53;0.00541469;5.52363e-05;-1.59253e+08;-3.47077e+08;-3.91002e+08;1.37944e+08;1.16866e+08;1.10922e+08;-2.19527e+07;-3.87392e+08;-4.87988e+08;0.135393;0.055104;-0.018933;-0.000461399;0.0193944;0.0168335;-0.0856374;0.00475109;-0.0513464;-0.0328748;-0.013019;0.0168335;-0.0856374;0.00475109;0.0211665;-0.000994681;-0.0132253;0.0164961;-0.0480577;-0.0441346;-0.0134504;-0.0134448;-0.0703491;0.0276421;-0.0512759;-0.0394423;-0.0972403;-0.116504;-1.59253e+08;-3.47077e+08;-3.91002e+08;1.37944e+08;1.16866e+08;1.10922e+08;-2.19527e+07;-1.73459e+07;-1.04195e+07;-8.51303e+06;-3.87392e+08;2.37378e+08;-2.31495e+08;-2.00335e+08;-4.87988e+08;-6.69501e+06;3.15357e+08;-3.72341e+08
111;0.371827;0.11962;-0.231105;-1.17963e-08;-8.17085e-09;-7.46388e-09;-0.00104012;-0.00074549;-0.000781183;39.6577;-3.39681e+08;0.637233;4.33851e+08;1.88619e+09;0;0;1e+30;-0.0977351;428.496;1.33548e+09;109707;2.12687;3507.58;0.00543449;5.74711e-05;-1.8889e+08;-4.30585e+08;-3.99567e+08;1.17625e+08;1.23411e+08;1.27994e+08;-5.86774e+07;-4.20853e+08;-5.39512e+08;0.13829;0.0529056;-0.0165969;0.00729869;0.00929817;0.0176965;-0.0846927;-0.00897843;-0.0491752;-0.0252797;-0.0232802;0.0176965;-0.0846927;-0.00897843;0.0193679;-0.00263427;-0.0134766;0.0136586;-0.049866;-0.0485403;-0.00192258;-0.0112587;-0.067237;0.0123913;-0.0482209;-0.0451887;-0.0977351;-0.116758;-1.8889e+08;-4.30585e+08;-3.99567e+08;1.17625e+08;1.23411e+08;1.27994e+08;-5.86774e+07;-4.69621e+07;-2.35308e+07;-2.61515e+07;-4.20853e+08;2.52235e+08;-2.17184e+08;-2.57537e+08;-5.39512e+08;-8.30987e+06;4.08347e+08;-3.52501e+08
112;0.371182;0.102273;-0.215247;-1.19167e-08;-6.91002e-09;-8.62515e-09;-0.0010359;-0.000621122;-0.000893487;39.6577;-3.46545e+08;0.63637;4.89138e+08;1.89423e+09;0;0;1e+30;-0.097884;428.497;1.33548e+09;109702;2.12684;3504.16;0.00543448;4.43261e-05;-2.05391e+08;-4.72853e+08;-3.61391e+08;1.06053e+08;1.48926e+08;1.68157e+08;-3.13144e+07;-4.31882e+08;-5.76439e+08;0.155913;0.0656561;-0.0227254;0.0155612;0.00716423;0.00309267;-0.10604;0.00763925;-0.0553534;-0.0170668;-0.0254638;0.00309267;-0.10604;0.00763925;0.0319448;-0.000533689;0.0234466;-0.0216897;-0.0546283;-0.0536165;-0.00773834;-0.00704591;-0.0752005;0.0143518;-0.0499514;-0.0543507;-0.097884;-0.116865;-2.05391e+08;-4.72853e+08;-3.61391e+08;1.06053e+08;1.48926e+08;1.68157e+08;-3.13144e+07;-2.35561e+07;-1.14477e+07;-1.71656e+07;-4.31882e+08;2.84157e+08;-1.99138e+08;-2.5714e+08;-5.76439e+08;-2.0232e+07;-4.66079e+08;3.3859e+08
113;0.371093;0.0838965;-0.203961;-1.20553e-08;-5.58989e-09;-9.45009e-09;-0.00103504;-0.000491536;-0.000973598;39.6601;-3.37238e+08;0.632377;5.07075e+08;1.89817e+09;0;0;1e+30;-0.0979218;428.497;1.33548e+09;109702;2.12685;3504.14;0.00543502;5.6783e-05;-2.14839e+08;-4.85657e+08;-3.11218e+08;9.76817e+07;1.47062e+08;1.88934e+08;-8.46929e+06;-4.33492e+08;-5.69753e+08;0.161631;0.0833733;-0.0193916;0.0598467;-0.0404552;0.038728;-0.0893986;-0.0131448;-0.0520322;0.0272061;-0.0730958;0.038728;-0.0893986;-0.0131448;0.0483935;0.00964998;0.0443333;-0.0168335;-0.0561744;-0.055033;0.0100325;-0.00512639;-0.0901409;0.00193607;-0.0323584;-0.0841104;-0.0979218;-0.116959;-2.14839e+08;-4.85657e+08;-3.11219e+08;9.76817e+07;1.47062e+08;1.88934e+08;-8.4693e+06;-6.07745e+06;-2.83775e+06;-5.17115e+06;-4.33492e+08;3.01449e+08;-1.70512e+08;-2.60711e+08;-5.69753e+08;-2.20228e+07;-4.87801e+08;2.9357e+08
114;0.371437;0.0609793;-0.195876;-1.223e-08;-3.93051e-09;-1.00551e-08;-0.00103849;-0.000327748;-0.00103053;39.6834;-3.18185e+08;0.658597;4.62059e+08;1.89516e+09;0;0;1e+30;-0.0977488;428.497;1.33548e+09;109707;2.12689;3503.36;0.00544134;4.48671e-05;-1.53678e+08;-5.0293e+08;-2.97946e+08;5.70069e+07;8.22831e+07;1.74197e+08;-1.92182e+07;-4.03398e+08;-5.31937e+08;0.147282;0.0656926;-0.0147697;0.0436386;-0.028869;0.0491197;-0.0678041;-0.00496512;-0.0473526;0.0110557;-0.0614519;0.0491197;-0.0678041;-0.00496512;0.0316219;0.0091523;0.0283612;-0.0105747;-0.0526459;-0.0483339;0.0084905;-0.0190613;-0.0767248;0.020777;-0.0315962;-0.0667584;-0.0977488;-0.1169;-1.53678e+08;-5.0293e+08;-2.97946e+08;5.7007e+07;8.22831e+07;1.74197e+08;-1.92182e+07;-1.54954e+07;-3.65718e+06;-1.07638e+07;-4.03398e+08;2.38533e+08;-1.14967e+08;-3.04326e+08;-5.31937e+08;-8.5426e+06;-4.99728e+08;1.82089e+08
115;0.368934;0.0488827;-0.191568;-1.21266e-08;-3.03719e-09;-1.03892e-08;-0.00101937;-0.000241632;-0.00106139;39.7347;-2.78769e+08;0.698997;4.07107e+08;1.89798e+09;0;0;1e+30;-0.0978666;428.496;1.33548e+09;109710;2.1269;3505.24;0.00545533;5.03908e-05;-1.66806e+08;-4.48143e+08;-2.21358e+08;3.44608e+07;6.46644e+07;1.66183e+08;-1.49117e+07;-3.55656e+08;-4.65741e+08;0.129767;0.0764836;-0.0448833;0.0759401;-0.0310568;0.00448352;-0.00359724;0.00493295;-0.0775055;0.0433179;-0.063679;0.00448352;-0.00359724;0.00493295;0.0433881;0.000789822;0.0433751;-0.000710463;-0.0632702;-0.0109263;-0.000821718;-0.0623142;-0.0779845;-0.0767997;0.00161867;0.0134449;-0.0978666;-0.117252;-1.66806e+08;-4.48144e+08;-2.21359e+08;3.44608e+07;6.46644e+07;1.66182e+08;-1.49117e+07;-1.1109e+07;-2.32719e+06;-9.67128e+06;-3.55656e+08;2.36612e+08;-8.71935e+07;-2.50805e+08;-4.65741e+08;-2.27979e+07;-4.45638e+08;1.3342e+08
116;0.37142;0.0349217;-0.191685;-1.23583e-08;-2.02449e-09;-1.03663e-08;-0.00103848;-0.000142447;-0.0010594;39.7227;-2.76446e+08;0.635604;4.68319e+08;1.88708e+09;0;0;1e+30;-0.0984378;428.497;1.33548e+09;109707;2.12689;3504.92;0.00545208;9.52757e-05;-1.11257e+08;-4.87232e+08;-2.3085e+08;1.67554e+07;3.76727e+07;1.85766e+08;2.6589e+07;-3.62888e+08;-4.9304e+08;0.149279;0.0797394;-0.027951;0.0771475;-0.0491965;-0.0214272;0.000754362;0.0175733;-0.0607636;0.0443349;-0.0820091;-0.0214272;0.000754362;0.0175733;0.045418;-0.0045743;0.0451867;-0.000181666;-0.0585577;-0.0545537;-0.00560508;-0.0205301;-0.085298;0.0297854;0.00269406;-0.0798832;-0.0984378;-0.117837;-1.11257e+08;-4.87232e+08;-2.3085e+08;1.67554e+07;3.76727e+07;1.85766e+08;2.65889e+07;2.13803e+07;1.84818e+06;1.56983e+07;-3.62888e+08;2.15264e+08;-5.7758e+07;-2.86379e+08;-4.9304e+08;-1.92858e+07;-4.85547e+08;8.34302e+07
117;0.371857;0.0142646;-0.190034;-1.24824e-08;-5.11679e-10;-1.04653e-08;-0.00104159;4.47782e-06;-0.00107188;39.7181;-3.12527e+08;0.616393;4.89127e+08;1.88496e+09;0;0;1e+30;-0.0989575;428.497;1.33548e+09;109707;2.12689;3504.4;0.00545088;9.60732e-05;-1.70789e+08;-5.37932e+08;-2.28861e+08;-5.1851e+06;-6.19895e+06;2.01829e+08;4.19882e+06;-4.03719e+08;-5.38061e+08;0.155911;0.0675546;-0.0289269;0.061837;-0.0329101;0.0204843;0.00896657;0.0412738;-0.0619127;0.0288512;-0.0658959;0.0204843;0.00896657;0.0412738;0.0304861;0.00384028;0.0301612;0.00222524;-0.0446917;-0.032366;0.00634601;-0.0301582;-0.0847518;0.0574601;-0.00272418;-0.0622397;-0.0989575;-0.118142;-1.70789e+08;-5.37932e+08;-2.28861e+08;-5.1851e+06;-6.19899e+06;2.01829e+08;4.19882e+06;3.1729e+06;-61784.1;2.74936e+06;-4.03719e+08;2.64412e+08;3.87484e+06;-3.05058e+08;-5.38061e+08;-2.60102e+06;-5.37978e+08;-9.08783e+06
118;0.371195;-0.0108499;-0.191851;-1.25385e-08;1.32157e-09;-1.03306e-08;-0.00103772;0.000182514;-0.00105833;39.7184;-2.55758e+08;0.609512;4.34554e+08;1.87716e+09;0;0;1e+30;-0.0986447;428.497;1.33548e+09;109708;2.12689;3504.78;0.00545097;9.41143e-05;-1.10217e+08;-4.52834e+08;-2.04224e+08;-1.70255e+07;-3.59543e+07;1.73277e+08;2.4941e+07;-3.34046e+08;-4.5817e+08;0.138516;0.071593;-0.0373273;0.0698793;-0.032552;0.020153;-0.00066973;0.0172605;-0.0702089;0.0369977;-0.0654335;0.020153;-0.00066973;0.0172605;0.0379388;0.00353327;0.0377735;0.000172619;-0.0592071;-0.0344946;0.00344591;-0.0479971;-0.0773764;-0.0624735;0.00563665;0.0453033;-0.0986447;-0.118167;-1.10217e+08;-4.52834e+08;-2.04224e+08;-1.70255e+07;-3.59544e+07;1.73276e+08;2.4941e+07;1.96996e+07;-1.8447e+06;1.51847e+07;-3.34046e+08;2.04588e+08;4.92041e+07;-2.59441e+08;-4.5817e+08;1.47687e+07;-4.51903e+08;-7.40591e+07
119;0.371557;-0.0339287;-0.197408;-1.26197e-08;2.99696e-09;-9.91556e-09;-0.00104094;0.000346294;-0.00101977;39.7021;-2.92669e+08;0.549334;4.95159e+08;1.86529e+09;0;0;1e+30;-0.0980866;428.497;1.33548e+09;109705;2.12684;3506.43;0.00544664;9.80573e-05;-9.33485e+07;-4.88285e+08;-2.96374e+08;-5.12859e+07;-6.43813e+07;1.896e+08;3.16717e+07;-4.01645e+08;-5.08035e+08;0.157834;0.0670886;-0.0257164;0.0644501;-0.0387337;0.0215824;0.00283078;0.0199487;-0.0584119;0.0317545;-0.0714292;0.0215824;0.00283078;0.0199487;0.0330921;0.003963;0.0328436;0.000822942;-0.0542028;-0.0468111;0.00631449;-0.0265855;-0.0769759;0.0376948;-0.00286825;-0.0670534;-0.0980866;-0.117389;-9.33484e+07;-4.88286e+08;-2.96374e+08;-5.12858e+07;-6.43813e+07;1.896e+08;3.16717e+07;2.67177e+07;-4.66059e+06;1.63567e+07;-4.01645e+08;2.15453e+08;1.10569e+08;-3.20426e+08;-5.08035e+08;1.25869e+07;-4.8265e+08;-1.58084e+08
120;0.37124;-0.0558358;-0.204649;-1.26382e-08;4.57631e-09;-9.36521e-09;-0.00103849;0.000503149;-0.000968808;39.6692;-2.93088e+08;0.549991;4.71335e+08;1.86812e+09;0;0;1e+30;-0.097731;428.496;1.33548e+09;109706;2.12678;3506.56;0.00543788;4.25068e-05;-1.66317e+08;-4.23595e+08;-2.89351e+08;-1.03859e+08;-1.34381e+08;1.6926e+08;1.32953e+07;-3.85872e+08;-5.06687e+08;0.150238;0.0571215;-0.0231348;0.0503052;-0.0271704;-0.00173627;0.0455889;0.00995622;-0.0557118;0.0177282;-0.0597474;-0.00173627;0.0455889;0.00995622;0.0239399;0.000141966;0.0230958;0.00629921;-0.0536566;-0.0496615;0.00562948;-0.0195211;-0.0680143;0.0257499;0.0164171;-0.0607731;-0.097731;-0.11703;-1.66317e+08;-4.23596e+08;-2.89351e+08;-1.03859e+08;-1.34381e+08;1.69259e+08;1.32953e+07;9.86038e+06;-4.6793e+06;7.59225e+06;-3.85872e+08;2.58838e+08;1.51737e+08;-2.42644e+08;-5.06687e+08;1.64191e+06;-4.30386e+08;-2.6739e+08
121;0.371112;-0.0760203;-0.219358;-1.26228e-08;6.03453e-09;-8.28534e-09;-0.00103795;0.000647022;-0.000864423;39.6694;-2.71419e+08;0.500583;4.45219e+08;1.86053e+09;0;0;1e+30;-0.0965568;428.496;1.33548e+09;109708;2.12687;3510.23;0.00543794;9.67137e-05;-1.09016e+08;-3.86188e+08;-3.19052e+08;-1.06918e+08;-1.21986e+08;1.37309e+08;1.60462e+07;-3.51149e+08;-4.79153e+08;0.141914;0.0515861;-0.0172642;0.0393948;-0.0221306;-0.00110394;0.055903;0.0133223;-0.0494498;0.0072092;-0.0543162;-0.00110394;0.055903;0.0133223;0.0180643;0.00050823;0.016829;0.0065457;-0.0472085;-0.0444292;0.00693274;-0.0143745;-0.0674126;0.0227099;0.0224117;-0.0593838;-0.0965568;-0.115986;-1.09016e+08;-3.86188e+08;-3.19052e+08;-1.06918e+08;-1.21986e+08;1.37309e+08;1.60462e+07;1.30304e+07;-5.71362e+06;7.4192e+06;-3.51149e+08;2.04909e+08;1.70506e+08;-2.28573e+08;-4.79153e+08;-3.48336e+06;-3.82555e+08;-2.88492e+08
122;0.371057;-0.0946756;-0.232322;-1.26171e-08;7.35517e-09;-7.32277e-09;-0.00103812;0.000780001;-0.000773112;39.5718;-3.36577e+08;0.528931;5.05078e+08;1.86777e+09;0;0;1e+30;-0.0967446;428.497;1.33548e+09;109701;2.12685;3511.06;0.00541148;4.83325e-05;-1.8176e+08;-4.13668e+08;-4.14301e+08;-1.47983e+08;-1.58959e+08;1.41037e+08;-1.07398e+07;-4.25961e+08;-5.73029e+08;0.160991;0.0595676;-0.0219264;0.0292441;-0.00731771;-0.00253223;0.0859451;0.0217456;-0.0541745;-0.00300413;-0.0395659;-0.00253223;0.0859451;0.0217456;0.0257239;0.00160828;0.0213215;0.0143013;-0.0493746;-0.0436442;0.0150408;-0.017516;-0.0730939;0.0338718;0.0342992;-0.0549453;-0.0967446;-0.115785;-1.8176e+08;-4.13668e+08;-4.14301e+08;-1.47983e+08;-1.58959e+08;1.41037e+08;-1.07398e+07;-8.23707e+06;4.92643e+06;-4.81916e+06;-4.25961e+08;-2.73225e+08;-2.25039e+08;2.36956e+08;-5.73029e+08;-1.03775e+07;-4.09416e+08;-4.00791e+08
123;0.371336;-0.109001;-0.251764;-1.25739e-08;8.36471e-09;-5.89973e-09;-0.00104047;0.000882542;-0.000634893;39.5369;-3.34697e+08;0.521332;4.68341e+08;1.87033e+09;0;0;1e+30;-0.0970255;428.496;1.33548e+09;109703;2.12685;3513.44;0.00540215;4.34997e-05;-2.09881e+08;-3.75439e+08;-4.1877e+08;-1.48923e+08;-1.52859e+08;1.24165e+08;-3.17344e+07;-4.20796e+08;-5.5156e+08;0.14928;0.0624144;-0.0192363;0.0196453;-0.000409009;0.00442281;0.0999168;0.0130947;-0.0515781;-0.0126965;-0.0327508;0.00442281;0.0999168;0.0130947;0.0286597;0.00209089;0.0220634;0.0181718;-0.0514067;-0.050592;0.00815329;-0.00407812;-0.0742785;0.012006;0.0459202;-0.0571357;-0.0970255;-0.116078;-2.09881e+08;-3.75439e+08;-4.1877e+08;-1.48923e+08;-1.52859e+08;1.24165e+08;-3.17344e+07;-2.33678e+07;1.63267e+07;-1.39448e+07;-4.20796e+08;-2.84612e+08;-2.2841e+08;2.09509e+08;-5.5156e+08;-9.72545e+06;-3.66143e+08;-4.12386e+08
124;0.370953;-0.124414;-0.272337;-1.24893e-08;9.43201e-09;-4.40012e-09;-0.0010378;0.00099375;-0.000488674;39.4278;-2.91918e+08;0.586405;4.73143e+08;1.87794e+09;0;0;1e+30;-0.0974666;428.496;1.33548e+09;109700;2.12683;3518.7;0.00537274;4.15023e-05;-1.43282e+08;-2.72572e+08;-4.59899e+08;-1.61161e+08;-1.2797e+08;8.32466e+07;8.75524e+06;-3.59681e+08;-5.24827e+08;0.150808;0.0677376;-0.0304157;-0.00358609;0.0340018;0.0132162;0.096865;0.00441397;-0.0629045;-0.036075;0.00151287;0.0132162;0.096865;0.00441397;0.0349857;0.00198525;0.0197979;0.0287768;-0.0610617;-0.0542185;-0.0212533;0.0183623;-0.0713907;0.0325873;-0.0533584;0.0344614;-0.0974666;-0.116773;-1.43281e+08;-2.72572e+08;-4.59899e+08;-1.61161e+08;-1.2797e+08;8.32466e+07;8.75522e+06;6.70993e+06;-5.00803e+06;2.55936e+06;-3.59681e+08;-2.31043e+08;-2.4667e+08;1.23059e+08;-5.24827e+08;2.50535e+06;-2.36164e+08;-4.68683e+08
125;0.371241;-0.129985;-0.293156;-1.23917e-08;9.80196e-09;-2.90334e-09;-0.00104035;0.0010338;-0.000339703;39.4279;-2.9449e+08;0.587124;4.88445e+08;1.88572e+09;0;0;1e+30;-0.097203;428.496;1.33548e+09;109701;2.12683;3518.71;0.00537276;2.96915e-05;-1.31559e+08;-2.38184e+08;-5.13728e+08;-1.79574e+08;-7.93207e+07;4.57913e+07;1.59009e+07;-3.64427e+08;-5.34946e+08;0.155685;0.0847346;-0.0287256;-0.0266976;0.0554232;0.0127596;0.106791;0.0274485;-0.0611266;-0.0590986;0.0230221;0.0127596;0.106791;0.0274485;0.0513547;0.00684654;0.0224718;0.0456667;-0.0631568;-0.0625858;0.00457906;0.00712984;-0.0854009;-0.00128732;-0.0765408;0.0378573;-0.097203;-0.116494;-1.31559e+08;-2.38184e+08;-5.13728e+08;-1.79574e+08;-7.93207e+07;4.57913e+07;1.59008e+07;1.24424e+07;-9.57722e+06;2.51011e+06;-3.64427e+08;-2.26896e+08;-2.74756e+08;7.63825e+07;-5.34946e+08;-3.86481e+06;-1.40313e+08;-5.16202e+08
126;0.37105;-0.134254;-0.306188;-1.2322e-08;1.00818e-08;-1.96653e-09;-0.00103885;0.00106501;-0.000246995;39.3849;-2.88378e+08;0.602356;4.76727e+08;1.89064e+09;0;0;1e+30;-0.0970358;428.496;1.33548e+09;109699;2.12683;3520.44;0.00536116;3.82573e-05;-1.66183e+08;-1.90332e+08;-5.08619e+08;-1.86391e+08;-5.27755e+07;4.12808e+07;1.68705e+07;-3.64363e+08;-5.17642e+08;0.151949;0.0958088;-0.0349376;-0.0357126;0.0706503;-0.00447544;0.109495;0.0235352;-0.0672829;-0.0680579;0.038305;-0.00447544;0.109495;0.0235352;0.0622176;0.00478527;0.0239632;0.057218;-0.0662892;-0.0638698;0.0176279;-0.00204111;-0.0929642;-0.0238374;-0.0821533;0.0363999;-0.0970358;-0.116364;-1.66183e+08;-1.90332e+08;-5.08619e+08;-1.86391e+08;-5.27755e+07;4.12807e+07;1.68705e+07;1.21733e+07;-1.1488e+07;2.11005e+06;-3.64362e+08;-2.51723e+08;-2.6234e+08;2.39425e+07;-5.17642e+08;2.34526e+07;-6.9272e+07;-5.1245e+08
127;0.370926;-0.137727;-0.319378;-1.2249e-08;1.03077e-08;-1.02379e-09;-0.00103834;0.0010901;-0.000152998;39.3326;-3.00191e+08;0.62058;4.44503e+08;1.8953e+09;0;0;1e+30;-0.0969828;428.496;1.33548e+09;109698;2.12681;3522.47;0.00534702;4.82106e-05;-1.588e+08;-2.25063e+08;-5.1671e+08;-1.70787e+08;-1.82876e+07;1.00134e+07;-1.72102e+07;-3.65509e+08;-5.17854e+08;0.141676;0.107615;-0.0394707;-0.0451591;0.0846298;-0.0212194;0.112105;0.0143641;-0.0717983;-0.0774867;0.0523022;-0.0212194;0.112105;0.0143641;0.0732223;0.00153979;0.0254242;0.0686494;-0.0669308;-0.0622105;0.023575;-0.00733557;-0.103274;-0.0380345;-0.089758;0.0340948;-0.0969828;-0.11624;-1.588e+08;-2.25063e+08;-5.1671e+08;-1.70787e+08;-1.82876e+07;1.00134e+07;-1.72102e+07;-1.32584e+07;1.09527e+07;-666788;-3.65509e+08;-2.33041e+08;-2.80971e+08;1.85498e+07;-5.17854e+08;-1.30252e+06;-3.30387e+07;-5.16797e+08
128;0.371423;-0.139457;-0.34278;-1.21484e-08;1.03941e-08;6.39044e-10;-0.00104212;0.00110324;1.42681e-05;39.2925;-2.92524e+08;0.611252;4.32818e+08;1.89513e+09;0;0;1e+30;-0.097225;428.496;1.33548e+09;109697;2.12677;3525.51;0.00533625;2.67558e-05;-1.16444e+08;-2.55412e+08;-5.05715e+08;-1.5333e+08;-3.32278e+06;-2.55378e+06;-1.75879e+07;-3.54152e+08;-5.05831e+08;0.137951;0.0858675;-0.023068;-0.0571951;0.0802631;-0.0199154;0.023355;0.0262001;-0.0554763;-0.0896034;0.0478548;-0.0199154;0.023355;0.0262001;0.0502629;0.00581541;0.00374254;0.0497848;-0.0536435;-0.0510719;0.0156965;0.00478578;-0.0938443;-0.026575;-0.0894645;0.00982968;-0.097225;-0.116527;-1.16444e+08;-2.55412e+08;-5.05716e+08;-1.5333e+08;-3.3228e+06;-2.55375e+06;-1.75879e+07;-1.47821e+07;9.53018e+06;12461.9;-3.54152e+08;-1.91822e+08;-2.97545e+08;9.75533e+06;-5.05831e+08;-7.85106e+06;-1.15165e+07;-5.05639e+08
129;0.370335;-0.138048;-0.366872;-1.19269e-08;1.02677e-08;2.32595e-09;-0.00103345;0.00109426;0.000186546;39.2799;-2.60039e+08;0.624103;4.0037e+08;1.89735e+09;0;0;1e+30;-0.0969433;428.495;1.33547e+09;109701;2.12682;3533.66;0.005333;6.66965e-05;-1.48707e+08;-1.86039e+08;-4.45371e+08;-1.60723e+08;3.55156e+07;-1.51475e+07;-2.80731e+06;-3.26962e+08;-4.50348e+08;0.127609;0.0969037;-0.0577168;-0.0362042;0.093921;-0.0065663;-0.00378624;0.0344563;-0.0900313;-0.0685186;0.0616066;-0.0065663;-0.00378624;0.0344563;0.0635776;0.00710798;-0.00108197;0.0631697;-0.0681657;0.00848593;-0.0676024;-0.00211275;-0.0923552;-0.0910532;-0.0117436;0.0100443;-0.0969433;-0.11644;-1.48707e+08;-1.86039e+08;-4.45371e+08;-1.60723e+08;3.55156e+07;-1.51474e+07;-2.80734e+06;-2.08251e+06;1.86958e+06;221310;-3.26962e+08;-2.19026e+08;-2.38809e+08;-4.36097e+07;-4.50348e+08;1.40717e+07;6.83402e+07;-4.4491e+08
130;0.370818;-0.129842;-0.390289;-1.1783e-08;9.65932e-09;3.97224e-09;-0.00103697;0.00103591;0.000355148;39.2725;-2.87045e+08;0.650265;3.91873e+08;1.90285e+09;0;0;1e+30;-0.097205;428.494;1.33547e+09;109706;2.12682;3538.48;0.00533114;5.6908e-05;-1.83129e+08;-2.36567e+08;-4.4144e+08;-1.55974e+08;7.31382e+07;-5.40258e+07;-3.24127e+07;-3.63767e+08;-4.64957e+08;0.1249;0.109599;-0.0531876;-0.045695;0.0988826;0.0226778;-0.07175;0.0313711;-0.0855893;-0.0780967;0.0664809;0.0226778;-0.07175;0.0313711;0.0758976;0.00599082;-0.0167478;0.0737839;-0.0719761;-0.0506482;-0.0506057;-0.00737437;-0.101127;0.0714073;-0.0683613;-0.0213148;-0.097205;-0.116541;-1.83129e+08;-2.36567e+08;-4.41441e+08;-1.55974e+08;7.31382e+07;-5.40258e+07;-3.24127e+07;-2.3935e+07;2.07481e+07;6.87139e+06;-3.63766e+08;-2.45159e+08;-2.58635e+08;-7.3013e+07;-4.64957e+08;-1.03437e+07;1.35344e+08;-4.44702e+08
131;0.371084;-0.122142;-0.413459;-1.1644e-08;9.08674e-09;5.58399e-09;-0.00103828;0.000982343;0.000521284;39.1703;-3.0273e+08;0.630464;4.32724e+08;1.89839e+09;0;0;1e+30;-0.0975644;428.496;1.33547e+09;109697;2.12679;3538.58;0.00530344;5.76026e-05;-1.85429e+08;-2.9609e+08;-4.26671e+08;-1.59138e+08;1.13263e+08;-9.83921e+07;-1.9624e+07;-3.96272e+08;-4.92294e+08;0.137918;0.0874115;-0.0446525;-0.0129466;0.0575991;-0.0273568;-0.10107;0.0316317;-0.0771739;-0.0454681;0.0250776;-0.0273568;-0.10107;0.0316317;0.0545794;0.00834184;-0.0252228;0.0476774;-0.0696954;0.0281031;-0.0542118;-0.0335968;-0.0824484;-0.0743888;-0.0351158;-0.00556195;-0.0975644;-0.116806;-1.85429e+08;-2.9609e+08;-4.26671e+08;-1.59138e+08;1.13263e+08;-9.83921e+07;-1.9624e+07;-1.4686e+07;1.11825e+07;6.66152e+06;-3.96272e+08;-2.62532e+08;-2.64316e+08;-1.35075e+08;-4.92294e+08;-1.58429e+07;2.36293e+08;-4.31587e+08
132;0.371262;-0.108709;-0.435102;-1.14789e-08;8.10939e-09;7.08514e-09;-0.00103959;0.000885142;0.000677173;39.1525;-2.4581e+08;0.612355;3.73508e+08;1.89674e+09;0;0;1e+30;-0.0973561;428.496;1.33547e+09;109697;2.12678;3537.97;0.00529877;0.000103042;-1.61379e+08;-2.62296e+08;-3.13755e+08;-1.26932e+08;1.17912e+08;-1.02368e+08;-1.26414e+06;-3.27454e+08;-4.08713e+08;0.119044;0.0970311;-0.0410121;-0.0131034;0.0541154;-0.00498755;-0.135804;0.0145953;-0.0734641;-0.0455554;0.0216634;-0.00498755;-0.135804;0.0145953;0.0642291;0.00350093;-0.0337931;0.0545082;-0.0736618;-0.0730019;-0.00974414;-0.00135228;-0.0879233;0.0107196;-0.07386;-0.046479;-0.0973561;-0.116937;-1.61378e+08;-2.62296e+08;-3.13755e+08;-1.26932e+08;1.17912e+08;-1.02368e+08;-1.26414e+06;-902015;689646;555711;-3.27454e+08;-2.29419e+08;-1.8218e+08;-1.46299e+08;-4.08713e+08;-340559;2.56173e+08;-3.18467e+08
133;0.37169;-0.0896036;-0.451788;-1.13233e-08;6.77168e-09;8.23811e-09;-0.00104333;0.000748809;0.000796893;39.1529;-2.7204e+08;0.654737;4.04712e+08;1.90177e+09;0;0;1e+30;-0.09735;428.495;1.33547e+09;109699;2.12677;3541.19;0.00529889;5.91843e-05;-1.56097e+08;-3.37609e+08;-3.22414e+08;-1.21932e+08;1.26914e+08;-1.16116e+08;-9.63142e+06;-3.48897e+08;-4.57592e+08;0.128989;0.113233;-0.0436776;0.0153786;0.028299;-0.0286058;-0.177475;0.0161088;-0.0761276;-0.0170714;-0.00415096;-0.0286058;-0.177475;0.0161088;0.0799298;0.0079766;-0.0543188;0.0580914;-0.0766213;-0.0745126;0.00673787;0.0165317;-0.100658;-0.0211923;-0.0733106;-0.0656397;-0.09735;-0.116774;-1.56097e+08;-3.37609e+08;-3.22414e+08;-1.21932e+08;1.26914e+08;-1.16116e+08;-9.63143e+06;-7.26533e+06;4.44218e+06;4.4996e+06;-3.48897e+08;-2.28436e+08;-1.66291e+08;-2.04678e+08;-4.57592e+08;2.19205e+07;3.42465e+08;-3.02701e+08
134;0.371066;-0.0705924;-0.466771;-1.11244e-08;5.43184e-09;9.26797e-09;-0.0010383;0.000611737;0.000903009;39.1583;-2.64544e+08;0.620458;4.43218e+08;1.90173e+09;0;0;1e+30;-0.0972368;428.495;1.33547e+09;109699;2.12677;3542.72;0.0053004;4.60676e-05;-1.28313e+08;-3.74386e+08;-2.90934e+08;-1.10856e+08;1.50249e+08;-1.22298e+08;1.39319e+07;-3.18231e+08;-4.89334e+08;0.141262;0.112291;-0.0584537;0.0336105;0.0248431;-0.0255165;-0.163589;0.00936917;-0.0908659;0.00119827;-0.00756916;-0.0255165;-0.163589;0.00936917;0.079641;-0.00582068;0.0577779;-0.0545025;-0.082121;0.0397419;-0.0471532;-0.0542312;-0.0947568;-0.082632;-0.0359557;-0.0292917;-0.0972368;-0.116706;-1.28313e+08;-3.74386e+08;-2.90934e+08;-1.10856e+08;1.50249e+08;-1.22298e+08;1.39319e+07;1.05473e+07;-5.74331e+06;-7.06157e+06;-3.1823e+08;-2.07259e+08;-1.31961e+08;-2.0224e+08;-4.89334e+08;-2.53495e+07;-3.96966e+08;2.84997e+08
135;0.371741;-0.0498752;-0.480731;-1.10218e-08;3.97441e-09;1.02331e-08;-0.00104246;0.000464885;0.00100486;39.157;-3.43656e+08;0.647186;4.96258e+08;1.90212e+09;0;0;1e+30;-0.0972392;428.495;1.33547e+09;109699;2.1268;3542.9;0.00530005;4.41026e-05;-1.62641e+08;-5.19539e+08;-3.48789e+08;-8.43863e+07;1.30226e+08;-1.617e+08;-2.9188e+07;-4.11879e+08;-5.89902e+08;0.158167;0.0989934;-0.040948;0.0574096;-0.0164617;-0.038809;-0.131425;-0.0115383;-0.073361;0.0249966;-0.0488748;-0.038809;-0.131425;-0.0115383;0.0648421;-0.00652572;0.0560003;-0.0320294;-0.0650458;-0.0539846;0.0130695;0.0338498;-0.0970355;-0.0532422;-0.0448628;-0.0675906;-0.0972392;-0.116237;-1.6264e+08;-5.19539e+08;-3.48789e+08;-8.43863e+07;1.30226e+08;-1.617e+08;-2.9188e+07;-2.35558e+07;8.09488e+06;1.52163e+07;-4.11879e+08;-2.43192e+08;-1.611e+08;-2.90773e+08;-5.89902e+08;4.7876e+06;-5.1767e+08;2.82806e+08
136;0.370868;-0.0288369;-0.486919;-1.08299e-08;2.51351e-09;1.066e-08;-0.00103587;0.000313995;0.0010493;39.1719;-2.99427e+08;0.648016;4.69145e+08;1.8971e+09;0;0;1e+30;-0.097637;428.495;1.33547e+09;109697;2.1268;3544.39;0.00530414;5.71329e-05;-1.00744e+08;-5.10691e+08;-2.86845e+08;-4.24946e+07;4.01991e+07;-1.66766e+08;3.49887e+06;-3.8349e+08;-5.18289e+08;0.149526;0.104114;-0.0401153;0.0838992;-0.0437839;-0.0270491;-0.101249;0.0201376;-0.0726609;0.0513536;-0.0763296;-0.0270491;-0.101249;0.0201376;0.0707947;-0.00789643;0.0663568;-0.0233732;-0.0732446;-0.070729;-0.013234;-0.0136764;-0.0951871;0.0223376;-0.0283647;-0.0880742;-0.097637;-0.116899;-1.00744e+08;-5.10691e+08;-2.86845e+08;-4.24946e+07;4.01991e+07;-1.66766e+08;3.49887e+06;2.99217e+06;-385822;-1.77205e+06;-3.8349e+08;-1.98022e+08;-3.69715e+07;-3.2632e+08;-5.18289e+08;-2.33253e+07;-5.12699e+08;7.22427e+07
137;0.371232;-0.00261732;-0.491511;-1.07309e-08;6.7436e-10;1.09894e-08;-0.00103808;0.00012531;0.00108297;39.187;-2.73456e+08;0.609962;4.02559e+08;1.8931e+09;0;0;1e+30;-0.0971698;428.494;1.33547e+09;109705;2.12682;3546.11;0.00530825;8.93298e-05;-1.42286e+08;-4.65276e+08;-2.12806e+08;-1.58683e+07;2.16729e+07;-1.56388e+08;-1.57369e+07;-3.3748e+08;-4.67151e+08;0.128304;0.0873736;-0.0340319;0.078873;-0.0448411;0.00557768;-0.0639598;-0.000875996;-0.0664219;0.0464831;-0.077231;0.00557768;-0.0639598;-0.000875996;0.0543264;0.00126543;0.0527738;-0.0128328;-0.0664845;-0.0664611;0.00130673;-0.00117985;-0.0850117;0.00107083;-0.0201093;-0.0825921;-0.0971698;-0.116586;-1.42286e+08;-4.65276e+08;-2.12806e+08;-1.58683e+07;2.16729e+07;-1.56388e+08;-1.57369e+07;-1.22579e+07;906474;9.82715e+06;-3.3748e+08;-2.11606e+08;-1.82031e+07;-2.62268e+08;-4.67151e+08;-5.17687e+06;-4.65694e+08;3.64991e+07
138;0.0800605;0.0197829;-0.492955;1.06391e-08;3.41632e-10;9.66909e-09;0.00102924;-3.12616e-05;0.00108737;39.1428;-2.96951e+08;0.67747;4.19122e+08;1.90923e+09;0;0;1e+30;-0.122357;428.495;1.33547e+09;109698;2.12677;3543.28;0.0052961;5.82507e-05;-1.85696e+08;-4.97541e+08;-2.07617e+08;-1.09434e+07;-1.80229e+07;1.66771e+08;-2.86463e+07;-3.63548e+08;-4.98659e+08;0.133582;0.0715837;-0.0309293;0.0685012;-0.0375719;0.0222923;-0.0156801;0.0225501;-0.0717149;0.0277156;-0.0783575;0.0222923;-0.0156801;0.0225501;0.0293536;0.00301248;0.0291427;-0.00180589;-0.063464;-0.0498541;0.00272575;-0.0391768;-0.0882463;0.0538505;-0.00985544;-0.0692127;-0.122357;-0.141633;-1.85696e+08;-4.97541e+08;-2.07617e+08;-1.09434e+07;-1.80229e+07;1.6677e+08;-2.86464e+07;-2.08758e+07;1.23972e+06;-1.95776e+07;-3.63548e+08;2.48952e+08;1.5244e+07;-2.64495e+08;-4.98659e+08;-1.4105e+06;-4.97753e+08;-3.00153e+07
139;0.079968;0.041424;-0.489468;1.07256e-08;-1.17643e-09;9.4356e-09;0.00103753;-0.000185002;0.00105753;39.1911;-2.49524e+08;0.670901;4.36753e+08;1.90662e+09;0;0;1e+30;-0.121026;428.495;1.33547e+09;109702;2.12681;3541.06;0.00530919;7.83473e-05;-1.25957e+08;-4.47923e+08;-1.74693e+08;-1.52427e+07;-4.40977e+07;1.76896e+08;3.16667e+07;-3.24674e+08;-4.55566e+08;0.139202;0.0797239;-0.0325736;0.0775654;-0.0449918;0.0160012;0.00309484;0.0244686;-0.0729156;0.0372235;-0.0853337;0.0160012;0.00309484;0.0244686;0.0378499;0.002809;0.037738;0.000753043;-0.0659671;-0.0557943;0.0048486;-0.034859;-0.0929086;0.0490864;-0.00208018;-0.0788555;-0.121026;-0.140585;-1.25957e+08;-4.47923e+08;-1.74693e+08;-1.52426e+07;-4.40977e+07;1.76896e+08;3.16666e+07;2.36723e+07;-2.6707e+06;2.08631e+07;-3.24674e+08;2.14875e+08;5.8002e+07;-2.36384e+08;-4.55566e+08;2.56462e+07;-4.46588e+08;-8.62676e+07
140;0.0801568;0.0669495;-0.483887;1.0806e-08;-2.97046e-09;9.06115e-09;0.00103785;-0.000373777;0.00101139;39.1882;-2.7981e+08;0.702196;5.23037e+08;1.90667e+09;0;0;1e+30;-0.122507;428.496;1.33547e+09;109697;2.12677;3537.24;0.00530816;4.70462e-05;-6.94861e+07;-4.94115e+08;-2.75829e+08;-5.66018e+07;-9.92922e+07;1.81762e+08;5.44154e+07;-3.60844e+08;-5.33001e+08;0.166703;0.0926155;-0.0386615;0.0869598;-0.0482983;-0.00784657;0.051658;0.0149631;-0.0794972;0.046124;-0.089134;-0.00784657;0.051658;0.0149631;0.0509367;-0.000979887;0.0500922;0.00918465;-0.0759241;-0.0692535;0.00429657;-0.0308216;-0.0975197;0.0399271;0.0168009;-0.0873708;-0.122507;-0.141885;-6.94862e+07;-4.94115e+08;-2.75829e+08;-5.66017e+07;-9.92923e+07;1.81762e+08;5.44154e+07;4.5599e+07;-9.78052e+06;2.80377e+07;-3.60844e+08;1.96451e+08;1.22711e+08;-2.7669e+08;-5.33001e+08;1.99342e+07;-4.91994e+08;-2.04044e+08
141;0.0800138;0.0880926;-0.475916;1.08852e-08;-4.45554e-09;8.51171e-09;0.00102818;-0.000529886;0.000955572;39.1882;-2.60247e+08;0.666561;5.55649e+08;1.90155e+09;0;0;1e+30;-0.121472;428.496;1.33547e+09;109696;2.12673;3537.27;0.00530818;5.1255e-05;-3.921e+07;-4.53114e+08;-2.88418e+08;-8.13247e+07;-1.30111e+08;1.89601e+08;9.61519e+07;-3.50982e+08;-5.25912e+08;0.177097;0.0865516;-0.0339913;0.0753634;-0.0413721;-0.0175583;0.0711123;-0.00385825;-0.0744819;0.0348728;-0.0818628;-0.0175583;0.0711123;-0.00385825;0.0455211;-0.00339467;0.0437096;0.0122519;-0.0751372;-0.0748926;-0.00476971;-0.00373435;-0.0918557;0.0028142;0.0249828;-0.0883483;-0.121472;-0.140966;-3.921e+07;-4.53114e+08;-2.88418e+08;-8.13246e+07;-1.30111e+08;1.89601e+08;9.61519e+07;8.03638e+07;-2.31387e+07;4.74494e+07;-3.50982e+08;1.9164e+08;1.60924e+08;-2.46101e+08;-5.25912e+08;3.0253e+07;-4.49914e+08;-2.70639e+08
142;0.0798393;0.105795;-0.463551;1.09175e-08;-5.69541e-09;7.67224e-09;0.00103013;-0.000648659;0.000875674;39.2345;-3.11895e+08;0.626212;4.94683e+08;1.89534e+09;0;0;1e+30;-0.120932;428.496;1.33547e+09;109696;2.12677;3537.29;0.00532067;5.03492e-05;-1.30311e+08;-4.33281e+08;-3.72093e+08;-9.75124e+07;-1.28471e+08;1.72891e+08;8.97465e+06;-4.06358e+08;-5.38302e+08;0.157667;0.0749936;-0.0257921;0.0245461;0.00124605;0.0440925;0.106015;0.0339146;-0.0661027;-0.0157645;-0.0390645;0.0440925;0.106015;0.0339146;0.0345412;0.00919902;0.025976;0.020826;-0.0737434;-0.0708906;0.0119157;0.0164507;-0.0817295;-0.00574878;0.0522266;-0.0626022;-0.120932;-0.140119;-1.30311e+08;-4.33281e+08;-3.72093e+08;-9.75123e+07;-1.28471e+08;1.72891e+08;8.97465e+06;7.33961e+06;-2.86634e+06;4.29634e+06;-4.06358e+08;2.29156e+08;2.4813e+08;-2.25934e+08;-5.38302e+08;6.17646e+07;-3.90088e+08;-3.65766e+08
143;0.0804677;0.124;-0.445743;1.08844e-08;-7.01876e-09;6.44072e-09;0.00102479;-0.00077914;0.000746938;39.3113;-2.72483e+08;0.637848;4.16764e+08;1.89361e+09;0;0;1e+30;-0.120129;428.495;1.33547e+09;109706;2.12684;3536.43;0.00534144;9.78645e-05;-1.20764e+08;-3.44087e+08;-3.52597e+08;-1.13578e+08;-1.12929e+08;1.22321e+08;-1.69341e+06;-3.54006e+08;-4.61749e+08;0.132834;0.0954791;-0.0323989;0.0273955;0.00500338;0.00729842;0.153452;0.00987038;-0.0724418;-0.0126473;-0.0350395;0.00729842;0.153452;0.00987038;0.053979;0.00255427;0.0407715;0.0352831;-0.0726625;-0.0725016;0.00482212;-0.000323579;-0.101445;0.00474171;0.0661408;-0.0767726;-0.120129;-0.139551;-1.20764e+08;-3.44087e+08;-3.52598e+08;-1.13578e+08;-1.12929e+08;1.22321e+08;-1.69342e+06;-1.37843e+06;688849;-702191;-3.54006e+08;-2.05078e+08;-2.19802e+08;1.86951e+08;-4.61749e+08;1.96889e+07;-3.09412e+08;-3.42183e+08
144;0.0796539;0.13846;-0.427051;1.09258e-08;-8.05303e-09;5.12755e-09;0.00103117;-0.000881622;0.000611336;39.3355;-3.31354e+08;0.620553;4.6528e+08;1.89743e+09;0;0;1e+30;-0.121213;428.496;1.33547e+09;109701;2.12679;3532.89;0.00534787;3.92622e-05;-1.6651e+08;-3.83922e+08;-4.43629e+08;-1.51052e+08;-1.23084e+08;1.13684e+08;-2.83986e+07;-4.25165e+08;-5.40498e+08;0.148299;0.0890064;-0.023538;0.00451942;0.0190185;-0.0418818;0.141713;-0.0075775;-0.0639421;-0.0358848;-0.0213856;-0.0418818;0.141713;-0.0075775;0.0452189;-0.00696856;0.0304024;0.0327396;-0.0621653;-0.0580995;0.0086144;-0.0203658;-0.104266;-0.0334269;-0.075818;0.0632905;-0.121213;-0.140284;-1.6651e+08;-3.83922e+08;-4.43629e+08;-1.51052e+08;-1.23084e+08;1.13684e+08;-2.83986e+07;-2.29307e+07;1.32788e+07;-1.02143e+07;-4.25165e+08;-2.50706e+08;-2.64424e+08;2.19069e+08;-5.40498e+08;-9.31505e+06;-3.39508e+08;-4.20458e+08
145;0.079704;0.15196;-0.405773;1.08996e-08;-9.04222e-09;3.645e-09;0.00102958;-0.000977462;0.00045855;39.3463;-3.24361e+08;0.647669;4.64914e+08;1.89934e+09;0;0;1e+30;-0.121334;428.496;1.33547e+09;109702;2.12681;3530.07;0.00535067;6.40148e-05;-1.66337e+08;-3.27958e+08;-4.78788e+08;-1.7898e+08;-9.7839e+07;7.7629e+07;-2.00173e+07;-4.25743e+08;-5.27323e+08;0.148182;0.0940432;-0.0391019;-0.0149369;0.0540388;-0.0389202;0.125191;0.000605057;-0.0795465;-0.0553815;0.0135941;-0.0389202;0.125191;0.000605057;0.0512945;-0.00382588;0.0264046;0.0438097;-0.0683969;-0.055764;0.0315783;-0.0239024;-0.104232;-0.0598513;-0.0752967;0.0401553;-0.121334;-0.140447;-1.66337e+08;-3.27958e+08;-4.78788e+08;-1.7898e+08;-9.7839e+07;7.7629e+07;-2.00173e+07;-1.60121e+07;1.09063e+07;-5.03535e+06;-4.25743e+08;-2.54779e+08;-2.94992e+08;1.71244e+08;-5.27323e+08;-2.36523e+07;-2.49045e+08;-4.64205e+08
146;0.0795312;0.16051;-0.385034;1.08662e-08;-9.66838e-09;2.18686e-09;0.00103017;-0.00103739;0.000309914;39.3551;-3.63639e+08;0.663878;5.30303e+08;1.90335e+09;0;0;1e+30;-0.122924;428.496;1.33547e+09;109700;2.12679;3526.69;0.00535292;2.94447e-05;-1.87226e+08;-3.361e+08;-5.6759e+08;-2.15396e+08;-8.1354e+07;6.31545e+07;-1.60661e+07;-4.81431e+08;-5.93419e+08;0.169024;0.10056;-0.037993;-0.0333001;0.071293;-0.0193498;0.120521;0.0129409;-0.0789678;-0.0742749;0.0303182;-0.0193498;0.120521;0.0129409;0.0578361;0.000795743;0.0239515;0.0526375;-0.074206;-0.0684884;0.0263747;-0.0109658;-0.106555;-0.0409889;-0.0892881;0.0412481;-0.122924;-0.141804;-1.87226e+08;-3.361e+08;-5.6759e+08;-2.15396e+08;-8.1354e+07;6.31545e+07;-1.60661e+07;-1.27753e+07;9.31968e+06;-2.83762e+06;-4.81431e+08;-2.91758e+08;-3.61209e+08;1.27206e+08;-5.93419e+08;-1.23173e+07;-1.88198e+08;-5.62651e+08
147;0.0805881;0.167797;-0.361605;1.0739e-08;-1.02252e-08;5.37271e-10;0.00102104;-0.00108861;0.000141932;39.3665;-2.98347e+08;0.661037;4.35665e+08;1.9018e+09;0;0;1e+30;-0.120887;428.496;1.33548e+09;109701;2.12683;3522.87;0.00535587;5.39865e-05;-1.80778e+08;-2.33253e+08;-4.8101e+08;-1.92203e+08;-2.36141e+07;7.4493e+06;-1.2076e+07;-3.99002e+08;-4.83963e+08;0.13886;0.103453;-0.0524307;-0.0432005;0.0956312;-0.00639535;0.0666405;0.0102218;-0.0927263;-0.0834962;0.0553355;-0.00639535;0.0666405;0.0102218;0.0630357;0.00173026;0.0139359;0.0614516;-0.0876203;0.0552818;-0.0666156;0.0135504;-0.0963024;-0.074669;-0.0588238;0.0154424;-0.120887;-0.140156;-1.80778e+08;-2.33253e+08;-4.81011e+08;-1.92203e+08;-2.36141e+07;7.44929e+06;-1.2076e+07;-9.07707e+06;7.94609e+06;-544334;-3.99002e+08;-2.6178e+08;-2.94852e+08;6.11228e+07;-4.83963e+08;-3.26625e+07;-7.00391e+07;-4.77753e+08
148;0.0797033;0.168167;-0.336984;1.07119e-08;-1.02793e-08;-1.21773e-09;0.00102678;-0.00109011;-3.41099e-05;39.3909;-2.88612e+08;0.640883;4.3502e+08;1.90014e+09;0;0;1e+30;-0.11936;428.496;1.33548e+09;109701;2.12684;3522.05;0.00536238;8.24741e-05;-1.85248e+08;-2.14999e+08;-4.6559e+08;-1.96481e+08;1.58049e+07;-2.2673e+07;-1.4656e+06;-3.96959e+08;-4.67412e+08;0.138656;0.0984805;-0.0332208;-0.0617265;0.0949472;-0.00890124;0.0319063;-0.011853;-0.0730074;-0.101513;0.0551606;-0.00890124;0.0319063;-0.011853;0.0570781;-0.00278177;0.00578331;0.0567161;-0.0728325;-0.072171;0.00873502;-0.0044305;-0.103605;-0.0129855;-0.10232;0.00979664;-0.11936;-0.138686;-1.85248e+08;-2.14999e+08;-4.6559e+08;-1.96481e+08;1.58049e+07;-2.2673e+07;-1.46561e+06;-1.07345e+06;994120;86292.4;-3.96959e+08;-2.68396e+08;-2.91681e+08;2.14969e+07;-4.67412e+08;-3.73908e+07;67949.8;-4.65914e+08
149;0.0801952;0.16698;-0.313178;1.05781e-08;-1.02318e-08;-2.91265e-09;0.00102112;-0.00108131;-0.000203382;39.4256;-3.13117e+08;0.64708;4.37016e+08;1.89998e+09;0;0;1e+30;-0.118835;428.496;1.33548e+09;109700;2.12684;3519.25;0.00537169;7.62428e-05;-2.25321e+08;-2.26889e+08;-4.87141e+08;-1.97379e+08;3.56211e+07;-2.68325e+07;-2.45106e+07;-4.22911e+08;-4.91929e+08;0.139293;0.086695;-0.0407289;-0.0433276;0.0840564;-0.0109311;-0.0349962;0.000808071;-0.0803406;-0.0829393;0.0444447;-0.0109311;-0.0349962;0.0008080
